15
Geometry 1 of 200
N      -1.698757   -0.374819    1.448627
O      -2.187442   -1.484959    1.344432
O      -2.381807    0.708598    1.665820
C      -0.229413   -0.280551    1.545038
C       0.445059    0.986951    1.495132
C       1.800121    0.995638    1.411217
C       2.565039   -0.154424    1.521814
C       1.891746   -1.392956    1.553283
C       0.577751   -1.398028    1.548654
O      -0.140747    2.139346    1.444194
H       2.459958    2.010657    1.475143
H       3.747279   -0.217043    1.389489
H       2.225414   -2.241608    1.478009
H      -0.100012   -2.284799    1.928092
H      -0.983234    1.987017    1.731298
15
Geometry 2 of 200
N      -1.619227   -0.658391    1.373693
O      -2.169708    0.085688    0.496217
O      -1.925108   -0.740027    2.676202
C      -0.180668   -0.474277    1.346723
C       0.214041    0.923898    1.599168
C       1.595097    1.182431    1.703060
C       2.536742    0.161846    1.432504
C       2.123454   -1.077707    1.305379
C       0.709108   -1.492355    1.399902
O      -0.631724    1.834789    1.658444
H       1.776917    2.173180    1.594444
H       3.618443    0.271540    1.426442
H       3.046596   -1.666235    1.272712
H       0.166335   -2.446261    1.281348
H      -1.544196    1.515056    1.421967
15
Geometry 3 of 200
N      -1.698539   -0.377865    1.433053
O      -2.166666   -1.495133    1.550608
O      -2.316025    0.666150    1.435655
C      -0.240050   -0.190234    1.531518
C       0.525492    1.024749    1.540685
C       1.819232    1.049078    1.417926
C       2.540150   -0.233310    1.495154
C       1.854598   -1.392319    1.495582
C       0.528464   -1.423008    1.523135
O      -0.200688    2.153725    1.587076
H       2.227394    1.923664    1.207997
H       3.676602   -0.263884    1.582833
H       2.463489   -2.346120    1.582621
H      -0.115383   -2.315587    1.399498
H      -1.067833    1.940982    1.529504
15
Geometry 4 of 200
N      -1.661420   -0.419849    1.508907
O      -2.198046   -1.481799    1.669900
O      -2.319896    0.661783    1.314291
C      -0.215078   -0.233834    1.491001
C       0.460785    1.031933    1.533330
C       1.804466    1.026371    1.659993
C       2.487764   -0.201637    1.459629
C       1.865494   -1.449068    1.374180
C       0.561331   -1.400413    1.490412
O      -0.149313    2.221045    1.521257
H       2.203099    2.052065    1.614724
H       3.624489   -0.155472    1.477346
H       2.460377   -2.456017    1.302835
H      -0.032873   -2.355477    1.451348
H      -1.107003    2.033911    1.331433
15
Geometry 5 of 200
N      -1.691235   -0.351547    1.537758
O      -2.204037   -1.442092    1.410259
O      -2.340059    0.673142    1.559926
C      -0.191720   -0.295673    1.521544
C       0.445062    1.001353    1.469265
C       1.819518    1.013489    1.497936
C       2.518468   -0.145497    1.508938
C       1.890429   -1.385341    1.533079
C       0.543003   -1.490021    1.495550
O      -0.156698    2.165640    1.443969
H       2.273442    2.009737    1.353578
H       3.731194   -0.082893    1.594075
H       2.537760   -2.342056    1.368839
H      -0.099795   -2.486476    1.710436
H      -1.097502    2.009113    1.923877
15
Geometry 6 of 200
N      -1.671461   -0.377853    1.477013
O      -2.153119   -1.463792    1.523946
O      -2.266767    0.602392    1.492639
C      -0.226996   -0.230499    1.461017
C       0.436813    1.028929    1.516033
C       1.819767    0.998173    1.429659
C       2.532906   -0.195783    1.507462
C       1.862196   -1.422673    1.455745
C       0.437554   -1.447726    1.535925
O      -0.174324    2.243334    1.511017
H       2.479024    1.888257    1.851686
H       3.558816    0.063190    1.728268
H       2.424536   -2.236476    1.659258
H      -0.006432   -2.570146    1.560605
H      -1.137010    2.096130    1.678374
15
Geometry 7 of 200
N      -1.638466   -0.412198    1.485136
O      -2.215471   -1.470664    1.459031
O      -2.274884    0.688760    1.563706
C      -0.248921   -0.199922    1.398726
C       0.393378    1.017989    1.578872
C       1.821503    0.964039    1.489454
C       2.508528   -0.210639    1.439209
C       1.954722   -1.398085    1.515771
C       0.521979   -1.396890    1.586442
O      -0.188921    2.178555    1.470015
H       2.360306    1.945170    1.745412
H       3.651811   -0.086187    1.530160
H       2.372164   -2.355765    1.470908
H      -0.010105   -2.360950    1.690829
H      -1.208633    1.892241    1.325465
15
Geometry 8 of 200
N      -1.666327   -0.338805    1.505843
O      -2.063367   -1.430782    1.582642
O      -2.329122    0.678113    1.462252
C      -0.194786   -0.246673    1.515029
C       0.427860    1.009332    1.537316
C       1.854926    1.009350    1.568405
C       2.553665   -0.211532    1.522330
C       1.830958   -1.400007    1.429675
C       0.469893   -1.488071    1.411676
O      -0.231685    2.141533    1.460986
H       2.189108    2.124560    1.766621
H       3.623430   -0.171233    1.617970
H       2.299041   -2.253116    1.433609
H      -0.105312   -2.357690    1.531271
H      -1.143523    1.944432    1.115610
15
Geometry 9 of 200
N      -1.582492   -0.648497    1.399107
O      -2.286439    0.116098    0.563825
O      -1.782604   -0.728705    2.698069
C      -0.244047   -0.465137    1.296427
C       0.292734    0.874811    1.519234
C       1.604762    1.260675    1.724144
C       2.571117    0.182669    1.638632
C       2.068775   -1.169216    1.314347
C       0.709043   -1.461686    1.238755
O      -0.699474    1.800028    1.558806
H       2.071681    2.371063    2.008153
H       3.719726    0.279637    1.651210
H       2.634551   -1.907122    1.317137
H       0.384817   -2.356970    1.298370
H      -1.590908    1.407943    1.217734
15
Geometry 10 of 200
N      -1.694749   -0.346428    1.541160
O      -2.216361   -1.462086    1.458571
O      -2.306325    0.669585    1.512480
C      -0.236456   -0.295069    1.539684
C       0.496175    0.973067    1.486221
C       1.786069    1.018657    1.393941
C       2.496510   -0.134553    1.517626
C       1.940034   -1.424392    1.545219
C       0.565655   -1.479750    1.450383
O      -0.161513    2.192641    1.525977
H       2.248982    2.055051    1.316754
H       3.489323   -0.214783    1.780929
H       2.365320   -2.292420    1.840439
H      -0.015267   -2.270630    1.250096
H      -1.166867    2.178231    1.636511
15
Geometry 11 of 200
N      -1.695782   -0.374699    1.577274
O      -2.178713   -1.472188    1.558065
O      -2.354889    0.678507    1.362423
C      -0.175870   -0.271137    1.506093
C       0.388356    0.977263    1.438408
C       1.827490    0.948262    1.610580
C       2.554659   -0.167432    1.418386
C       1.919690   -1.402836    1.510789
C       0.499515   -1.409183    1.463981
O      -0.187600    2.231678    1.543263
H       2.682730    1.938527    1.528864
H       3.745835   -0.176685    1.546178
H       2.600174   -2.354740    1.244628
H      -0.147004   -2.272095    1.668997
H      -1.046740    1.884142    1.584774
15
Geometry 12 of 200
N      -2.121113   -0.280308    1.526268
O      -2.787042   -1.328227    1.476036
O      -2.847428    0.788691    1.508631
C      -0.686118   -0.230141    1.469580
C      -0.127302    1.088494    1.614277
C       1.317446    1.164476    1.393318
C       1.991073   -0.082239    1.517958
C       1.320607   -1.346821    1.451618
C       0.062104   -1.443897    1.491871
O      -0.750038    2.271708    1.395560
H       1.988207    2.007640    1.771350
H       2.913729    0.005206    1.603505
H       1.766727   -2.267957    1.365353
H      -0.327982   -2.488571    1.483254
H      -1.726340    2.217393    1.416873
15
Geometry 13 of 200
N      -1.666509   -0.348615    1.516121
O      -2.223994   -1.519970    1.537020
O      -2.272198    0.689097    1.485442
C      -0.187512   -0.243527    1.468106
C       0.421992    1.051009    1.433784
C       1.845873    0.945219    1.502263
C       2.551574   -0.228810    1.539036
C       1.906919   -1.434246    1.486068
C       0.561998   -1.380027    1.430050
O      -0.281046    2.215048    1.528057
H       2.550858    1.960003    1.579109
H       3.780873   -0.107150    1.623916
H       2.250081   -2.452012    1.696549
H      -0.017065   -2.365190    1.651213
H      -1.198392    2.083478    1.551311
15
Geometry 14 of 200
N      -1.651007   -0.363169    1.474494
O      -2.220993   -1.399849    1.421387
O      -2.218840    0.702297    1.599390
C      -0.164502   -0.282251    1.530932
C       0.418897    0.955045    1.551631
C       1.779780    1.032887    1.501735
C       2.522983   -0.139862    1.515861
C       1.895051   -1.402548    1.522228
C       0.517235   -1.458722    1.528563
O      -0.236704    2.087782    1.420959
H       2.340686    1.897646    1.289184
H       3.506608   -0.048749    1.402387
H       2.565199   -2.275649    1.309757
H      -0.129785   -2.342206    1.465980
H      -1.178816    2.035743    1.515377
15
Geometry 15 of 200
N      -1.578866   -0.616345    1.382015
O      -2.287074    0.122927    0.621566
O      -1.868238   -0.785562    2.646694
C      -0.119789   -0.486428    1.416853
C       0.200212    0.935171    1.550267
C       1.603243    1.227515    1.707571
C       2.510331    0.148669    1.503228
C       2.083466   -1.158800    1.342353
C       0.775650   -1.469027    1.271683
O      -0.655790    1.864926    1.507003
H       1.911496    2.189115    2.052517
H       3.585334    0.280478    1.974517
H       2.746244   -1.989296    1.230470
H       0.510589   -2.512306    1.053911
H      -1.548012    1.390940    1.329881
15
Geometry 16 of 200
N      -1.648138   -0.363538    1.473969
O      -2.203166   -1.488434    1.520112
O      -2.310261    0.703272    1.427295
C      -0.191515   -0.261055    1.570631
C       0.416804    0.977488    1.496726
C       1.828645    1.053189    1.475379
C       2.560493   -0.155802    1.472538
C       1.837493   -1.399519    1.482067
C       0.566486   -1.510506    1.545319
O      -0.193063    2.184138    1.534965
H       2.296320    2.014284    1.622625
H       3.570224   -0.277861    1.488531
H       2.215193   -2.421089    1.168480
H       0.036367   -2.420596    1.658835
H      -1.083519    2.199877    1.645159
15
Geometry 17 of 200
N      -1.638150   -0.397014    1.533307
O      -2.174799   -1.444985    1.540105
O      -2.268507    0.629543    1.420975
C      -0.157596   -0.215297    1.415815
C       0.390143    0.992938    1.429689
C       1.766501    0.988037    1.436576
C       2.497080   -0.129240    1.484119
C       1.853162   -1.469411    1.521872
C       0.500075   -1.475377    1.536764
O      -0.147983    2.237798    1.640697
H       2.153731    1.932527    1.422641
H       3.505315   -0.110028    1.576565
H       2.588059   -2.267863    1.794600
H      -0.184318   -2.325231    1.372111
H      -1.025088    2.105466    1.426354
15
Geometry 18 of 200
N      -1.628253   -0.373715    1.564759
O      -2.187578   -1.450480    1.405678
O      -2.309427    0.687130    1.536078
C      -0.235165   -0.222617    1.529064
C       0.415498    1.048055    1.524767
C       1.760681    0.994312    1.463525
C       2.544283   -0.206876    1.536820
C       1.912311   -1.437218    1.419860
C       0.572788   -1.481463    1.575413
O      -0.202448    2.182291    1.463434
H       2.325479    2.010107    1.425281
H       3.615258   -0.215581    1.520876
H       2.444125   -2.214605    1.649925
H      -0.100528   -2.509250    1.533504
H      -1.075890    2.029036    1.419842
15
Geometry 19 of 200
N      -1.681651   -0.339076    1.469073
O      -2.183182   -1.454366    1.461736
O      -2.284248    0.688284    1.498958
C      -0.280201   -0.298514    1.563944
C       0.383704    0.988737    1.536577
C       1.790919    1.027861    1.415881
C       2.562200   -0.171135    1.463200
C       1.902958   -1.391632    1.490971
C       0.530649   -1.421436    1.586743
O      -0.147050    2.133094    1.492672
H       2.219836    1.899202    1.676959
H       3.662227   -0.246098    1.697436
H       2.629553   -2.291888    1.325781
H       0.068168   -2.430146    1.504078
H      -1.162959    2.045608    1.766335
15
Geometry 20 of 200
N      -1.677927   -0.659154    1.401191
O      -2.258776    0.080857    0.561780
O      -1.867799   -0.743110    2.720321
C      -0.198707   -0.478431    1.450120
C       0.207548    0.853897    1.554200
C       1.673131    1.189850    1.714134
C       2.493790    0.123754    1.616958
C       2.141595   -1.139530    1.322347
C       0.819345   -1.434694    1.178938
O      -0.660677    1.900492    1.515154
H       1.909956    2.329114    1.728510
H       3.513393    0.585043    1.723155
H       2.777174   -1.803256    1.008641
H       0.389449   -2.443844    0.899627
H      -1.491517    1.778207    1.237733
15
Geometry 21 of 200
N      -1.646615   -0.381537    1.416214
O      -2.208767   -1.452794    1.548572
O      -2.252845    0.671203    1.516783
C      -0.152479   -0.273384    1.521594
C       0.388093    1.005587    1.489118
C       1.832325    1.023870    1.536628
C       2.544750   -0.195282    1.501672
C       1.842785   -1.340221    1.507157
C       0.485383   -1.455855    1.492696
O      -0.204185    2.180513    1.491529
H       2.309464    1.957482    1.450218
H       3.650040   -0.257619    1.517935
H       2.508256   -2.280620    1.306203
H      -0.181435   -2.481810    1.372648
H      -1.104992    1.695222    1.507000
15
Geometry 22 of 200
N      -1.734889   -0.360510    1.539809
O      -2.182705   -1.448951    1.362344
O      -2.353330    0.754336    1.615864
C      -0.188101   -0.292550    1.516505
C       0.435701    0.947965    1.388087
C       1.846855    1.011610    1.464840
C       2.571888   -0.193628    1.467906
C       1.979758   -1.460254    1.560387
C       0.544073   -1.414491    1.521574
O      -0.261891    2.172607    1.496903
H       2.324927    1.884882    1.561617
H       3.730776   -0.095212    1.661547
H       2.575931   -2.342932    1.761981
H       0.025968   -2.362979    1.764806
H      -1.143606    2.114490    1.552550
15
Geometry 23 of 200
N      -1.674121   -0.380925    1.481431
O      -2.191804   -1.408697    1.503009
O      -2.313580    0.643168    1.516975
C      -0.184332   -0.248584    1.475360
C       0.406466    0.985730    1.515987
C       1.830407    1.018412    1.425701
C       2.589785   -0.162940    1.534146
C       1.876766   -1.442284    1.538334
C       0.523233   -1.457578    1.485835
O      -0.213841    2.217041    1.478179
H       2.308180    1.955221    1.652239
H       3.699379   -0.078642    1.556955
H       2.337049   -2.506561    1.423932
H      -0.070527   -2.371627    1.408202
H      -1.082981    1.727668    1.966123
15
Geometry 24 of 200
N      -1.607346   -0.657778    1.400993
O      -2.130161    0.187845    0.637081
O      -1.996027   -0.822539    2.614674
C      -0.174454   -0.445459    1.494620
C       0.300418    0.910771    1.572446
C       1.713849    1.238623    1.673208
C       2.486549    0.227707    1.470718
C       2.037592   -1.117527    1.288119
C       0.737220   -1.515125    1.332830
O      -0.718423    1.778955    1.530123
H       2.120409    2.202173    1.850948
H       3.524618    0.416236    1.520831
H       2.987117   -1.794677    1.307136
H       0.366579   -2.609708    1.149344
H      -1.626858    1.296051    1.016017
15
Geometry 25 of 200
N      -1.718338   -0.361242    1.504587
O      -2.180467   -1.470147    1.420525
O      -2.359518    0.717072    1.619034
C      -0.209401   -0.232276    1.505604
C       0.388575    1.005074    1.501369
C       1.858000    0.943518    1.463086
C       2.542503   -0.179584    1.539805
C       1.959823   -1.384447    1.589562
C       0.533603   -1.457930    1.414000
O      -0.181402    2.167134    1.442681
H       2.237429    1.924302    1.467859
H       3.740385   -0.006746    1.457250
H       2.496855   -2.451481    1.441137
H       0.098521   -2.472024    1.696424
H      -1.109473    2.022182    1.444590
15
Geometry 26 of 200
N      -1.663141   -0.408963    1.516413
O      -2.276065   -1.392199    1.493787
O      -2.281273    0.673340    1.487631
C      -0.176892   -0.244757    1.406719
C       0.429964    1.003072    1.511712
C       1.826152    1.019322    1.436056
C       2.583482   -0.134933    1.453640
C       1.905308   -1.396198    1.551258
C       0.539738   -1.486650    1.548206
O      -0.214275    2.128347    1.566062
H       2.184548    1.988527    1.413703
H       3.623411   -0.201306    1.676047
H       2.482405   -2.280827    1.667392
H      -0.061644   -2.434082    1.429324
H      -1.096078    1.904210    1.517435
15
Geometry 27 of 200
N      -1.616692   -0.701056    1.437842
O      -2.225071    0.149035    0.638678
O      -1.942173   -0.821960    2.588663
C      -0.181159   -0.424522    1.458355
C       0.266897    0.962292    1.595586
C       1.662504    1.232892    1.619260
C       2.549201    0.188755    1.535768
C       2.095360   -1.229163    1.328642
C       0.742239   -1.467599    1.268552
O      -0.678949    1.868791    1.528711
H       1.926543    2.450331    1.647604
H       3.508637    0.446530    1.833375
H       2.752316   -1.951771    1.428984
H       0.535870   -2.410613    0.879098
H      -1.534841    1.317095    1.228075
15
Geometry 28 of 200
N      -1.622864   -0.628594    1.469426
O      -2.221858    0.189759    0.630261
O      -2.014397   -0.784248    2.583240
C      -0.119638   -0.459727    1.401159
C       0.202873    0.863141    1.525804
C       1.587074    1.221753    1.628104
C       2.596466    0.196031    1.592147
C       2.174624   -1.093089    1.218957
C       0.750486   -1.526844    1.379161
O      -0.640575    1.786383    1.560853
H       1.935944    2.248092    1.628280
H       3.650818    0.377744    1.799754
H       2.925133   -1.820215    1.045339
H       0.359465   -2.545120    1.224801
H      -1.698882    1.315868    1.223288
15
Geometry 29 of 200
N      -1.638769   -0.651448    1.339563
O      -2.357828    0.158764    0.545678
O      -1.929418   -0.815802    2.659585
C      -0.194681   -0.416773    1.444347
C       0.290675    0.941278    1.536199
C       1.651399    1.197313    1.629138
C       2.611512    0.200034    1.508611
C       2.185679   -1.168578    1.398042
C       0.772308   -1.510864    1.316867
O      -0.681111    1.826474    1.627318
H       1.932893    2.330294    1.657519
H       3.734280    0.520273    1.500508
H       2.956807   -2.030573    1.307935
H       0.203014   -2.402033    1.210955
H      -1.425951    1.408267    1.312629
15
Geometry 30 of 200
N      -2.221470   -0.241066    1.500828
O      -2.722550   -1.312249    1.521592
O      -2.922472    0.788380    1.462519
C      -0.674147   -0.203080    1.446712
C      -0.054014    1.065764    1.533985
C       1.344866    1.156456    1.549055
C       2.052735   -0.065425    1.497070
C       1.291506   -1.261106    1.458513
C       0.028687   -1.375342    1.476582
O      -0.738460    2.253391    1.474123
H       2.003105    2.032716    1.585053
H       3.183497   -0.188959    1.339489
H       1.751119   -2.206861    1.438628
H      -0.647747   -2.331845    1.536599
H      -1.662367    1.837123    1.579466
15
Geometry 31 of 200
N      -1.549968   -0.692152    1.465970
O      -2.248477    0.093017    0.593344
O      -2.020587   -0.708462    2.651809
C      -0.175847   -0.484831    1.360714
C       0.222995    0.866042    1.573868
C       1.669894    1.276104    1.677781
C       2.476476    0.189283    1.542542
C       2.120784   -1.185372    1.326421
C       0.816191   -1.446640    1.231573
O      -0.618873    1.823689    1.557968
H       1.836635    2.331603    1.890079
H       3.593040    0.376161    1.683209
H       2.916210   -1.917558    1.100086
H       0.417519   -2.480888    0.958818
H      -1.697225    1.704615    1.405144
15
Geometry 32 of 200
N      -1.587450   -0.678333    1.352905
O      -2.356545    0.127345    0.662028
O      -1.790976   -0.767692    2.625043
C      -0.198514   -0.474736    1.344950
C       0.200606    0.928050    1.508643
C       1.640829    1.153962    1.660017
C       2.536044    0.165934    1.661696
C       2.135684   -1.152676    1.349305
C       0.744219   -1.411590    1.264884
O      -0.630984    1.866984    1.519242
H       1.845136    2.240107    1.802675
H       3.544511    0.270864    1.842601
H       2.620120   -1.865843    1.243956
H       0.441566   -2.394616    1.172918
H      -1.664677    1.552627    1.513680
15
Geometry 33 of 200
N      -1.655508   -0.348472    1.427665
O      -2.241503   -1.459675    1.638812
O      -2.330914    0.640916    1.467454
C      -0.249762   -0.289799    1.387860
C       0.439685    0.959956    1.509011
C       1.832251    0.995735    1.496569
C       2.585923   -0.147138    1.559443
C       1.888530   -1.360668    1.431979
C       0.492030   -1.391609    1.488583
O      -0.136345    2.132233    1.553686
H       2.291630    2.080090    1.641511
H       3.638525   -0.086872    1.569806
H       2.475773   -2.283320    1.745319
H       0.039183   -2.262294    1.280810
H      -1.035556    2.101738    1.262069
15
Geometry 34 of 200
N      -1.574148   -0.586696    1.443678
O      -2.208132    0.135680    0.606826
O      -1.941826   -0.814405    2.618226
C      -0.162617   -0.458347    1.508568
C       0.214910    0.917875    1.600258
C       1.639092    1.238926    1.680322
C       2.509116    0.181970    1.478567
C       2.065708   -1.160811    1.353832
C       0.803226   -1.431667    1.178673
O      -0.680312    1.799468    1.505109
H       1.923577    2.131634    1.920059
H       3.636521    0.225953    1.659751
H       2.761770   -2.041331    1.430601
H       0.398313   -2.509338    1.326916
H      -1.483048    1.322475    1.152973
15
Geometry 35 of 200
N      -1.661018   -0.354294    1.434922
O      -2.185920   -1.474804    1.581604
O      -2.357162    0.670130    1.353085
C      -0.193978   -0.300984    1.505380
C       0.446543    1.077006    1.526424
C       1.750478    0.953361    1.433822
C       2.496777   -0.196232    1.464381
C       1.944577   -1.416517    1.488368
C       0.531300   -1.484617    1.588829
O      -0.139208    2.243507    1.629892
H       2.198511    2.103696    1.464948
H       3.545128   -0.099890    1.216773
H       2.553458   -2.437705    1.391341
H       0.091574   -2.356645    1.567353
H      -1.136520    2.083537    1.700502
15
Geometry 36 of 200
N      -1.681701   -0.339192    1.509374
O      -2.161470   -1.453564    1.530253
O      -2.350859    0.667313    1.522028
C      -0.219716   -0.245435    1.390188
C       0.448407    0.984125    1.488156
C       1.871742    0.973530    1.453807
C       2.511205   -0.133208    1.549161
C       1.891701   -1.429948    1.559629
C       0.509593   -1.429588    1.433595
O      -0.193971    2.142734    1.527826
H       2.524051    1.826909    1.263952
H       3.555611   -0.025501    1.711896
H       2.518779   -2.261081    1.663485
H       0.031742   -2.333984    1.321055
H      -1.151877    2.032064    1.640238
15
Geometry 37 of 200
N      -1.573952   -0.587967    1.399728
O      -2.257616    0.119068    0.607905
O      -1.909220   -0.818936    2.645376
C      -0.195089   -0.482888    1.412874
C       0.212788    0.887601    1.483354
C       1.612746    1.223614    1.590627
C       2.522758    0.204194    1.594894
C       2.090393   -1.125753    1.369937
C       0.758739   -1.543709    1.261993
O      -0.607804    1.876898    1.602512
H       1.855050    2.399716    1.828767
H       3.560498    0.428850    1.642987
H       2.856313   -1.900170    1.412371
H       0.365195   -2.622973    0.871759
H      -1.418366    1.414031    1.283266
15
Geometry 38 of 200
N      -1.646994   -0.355685    1.485847
O      -2.195624   -1.445350    1.369140
O      -2.327324    0.663104    1.619970
C      -0.177754   -0.239322    1.588749
C       0.444683    1.012919    1.433991
C       1.877942    0.993275    1.452365
C       2.559210   -0.192229    1.511559
C       1.891550   -1.431592    1.507081
C       0.513782   -1.405124    1.573164
O      -0.270560    2.167984    1.477797
H       2.520820    1.932303    1.431071
H       3.602451   -0.280660    1.583876
H       2.531691   -2.303351    1.415879
H      -0.212425   -2.414089    1.612884
H      -1.201683    1.884579    1.371801
15
Geometry 39 of 200
N      -1.706541   -0.359551    1.461038
O      -2.210292   -1.459863    1.433104
O      -2.324580    0.657872    1.603311
C      -0.199853   -0.277559    1.551680
C       0.422913    0.948860    1.480472
C       1.875605    1.036131    1.454154
C       2.568999   -0.134623    1.556694
C       1.896618   -1.436550    1.511277
C       0.481541   -1.478709    1.489000
O      -0.160694    2.218620    1.462816
H       2.120682    2.270496    1.383196
H       3.675253   -0.187299    1.551737
H       2.562646   -2.319977    1.442994
H      -0.006138   -2.470751    1.615294
H      -1.160781    2.102864    1.504012
15
Geometry 40 of 200
N      -1.703959   -0.348791    1.511005
O      -2.229222   -1.413521    1.554906
O      -2.385882    0.697105    1.469010
C      -0.107128   -0.249473    1.473747
C       0.462048    0.975661    1.555269
C       1.822222    0.967996    1.503845
C       2.538207   -0.178994    1.558365
C       1.994004   -1.420979    1.451689
C       0.564481   -1.413101    1.444973
O      -0.234811    2.123426    1.468843
H       2.306695    1.903028    1.621945
H       3.560034   -0.108875    1.392173
H       2.383624   -2.386981    1.619478
H      -0.034913   -2.316097    1.404287
H      -1.252339    2.037098    1.544124
15
Geometry 41 of 200
N      -1.652651   -0.366934    1.497663
O      -2.150429   -1.441456    1.429594
O      -2.317946    0.685789    1.509470
C      -0.245609   -0.271154    1.554045
C       0.477103    0.962388    1.425199
C       1.815226    0.982464    1.513572
C       2.469001   -0.170644    1.463491
C       1.899929   -1.364619    1.556487
C       0.495548   -1.447803    1.574734
O      -0.181029    2.162975    1.536707
H       2.361198    1.946829    1.262802
H       3.553771   -0.172403    1.172866
H       2.602072   -2.225028    1.303395
H       0.076208   -2.423069    1.551741
H      -1.233353    2.085882    1.599647
15
Geometry 42 of 200
N      -1.632370   -0.333032    1.517448
O      -2.169517   -1.415797    1.438632
O      -2.344437    0.740825    1.571453
C      -0.209508   -0.310281    1.515936
C       0.374790    0.990642    1.470200
C       1.811708    1.000436    1.505666
C       2.504180   -0.113635    1.580392
C       1.942840   -1.419160    1.501633
C       0.505624   -1.549048    1.529975
O      -0.174961    2.125487    1.426165
H       2.270959    1.965474    1.475707
H       3.617485    0.043167    1.318063
H       2.744409   -2.284348    1.091767
H      -0.016047   -2.480604    1.372290
H      -1.128372    1.947887    1.665546
15
Geometry 43 of 200
N      -1.615119   -0.675676    1.412937
O      -2.258331    0.139131    0.655986
O      -1.994710   -0.853071    2.614958
C      -0.148819   -0.473951    1.503623
C       0.264574    0.919701    1.544874
C       1.606384    1.230883    1.638112
C       2.497228    0.140706    1.571464
C       2.151436   -1.111247    1.306733
C       0.759237   -1.510797    1.273116
O      -0.579893    1.900161    1.490830
H       1.825907    2.281830    1.691407
H       3.639670    0.608178    1.779295
H       2.837816   -1.876281    1.177142
H       0.365055   -2.316590    0.888148
H      -1.606782    1.685271    1.322855
15
Geometry 44 of 200
N      -1.618691   -0.645824    1.386189
O      -2.227882    0.135936    0.584618
O      -1.908253   -0.849805    2.674680
C      -0.196544   -0.406045    1.365290
C       0.236495    0.907617    1.631593
C       1.642502    1.227574    1.631569
C       2.560388    0.175588    1.511129
C       2.083652   -1.120107    1.376173
C       0.689410   -1.474861    1.290531
O      -0.595682    1.830381    1.537789
H       1.752923    2.425330    1.803756
H       3.616073    0.489530    1.687834
H       2.728359   -1.937215    1.306926
H       0.454571   -2.470020    1.143492
H      -1.561723    1.293146    1.239547
15
Geometry 45 of 200
N      -1.639901   -0.353840    1.462950
O      -2.146737   -1.393576    1.505804
O      -2.317193    0.706581    1.530408
C      -0.169643   -0.261802    1.452842
C       0.434515    0.959157    1.464307
C       1.803404    1.027532    1.568224
C       2.482524   -0.202641    1.454068
C       1.913448   -1.419569    1.505331
C       0.509959   -1.473962    1.564939
O      -0.243360    2.123160    1.508117
H       2.350122    1.985690    1.530305
H       3.657508    0.075878    1.471292
H       2.577004   -2.314243    1.379166
H      -0.097851   -2.249977    1.520865
H      -1.096179    1.865192    1.311797
15
Geometry 46 of 200
N      -1.497734   -0.601507    1.558567
O      -2.249485    0.050006    0.593754
O      -2.032422   -0.722254    2.684295
C      -0.170614   -0.476079    1.362304
C       0.296451    0.901278    1.522355
C       1.592337    1.216332    1.689544
C       2.479877    0.135931    1.635043
C       2.095315   -1.090675    1.254972
C       0.781840   -1.409748    1.136480
O      -0.638978    1.790970    1.512891
H       2.057752    2.053923    2.173378
H       3.608536    0.386612    1.770262
H       2.777432   -1.895267    1.320092
H       0.640079   -2.560114    0.894333
H      -1.563192    1.575631    1.052797
15
Geometry 47 of 200
N      -1.628852   -0.617739    1.382059
O      -2.163106    0.016215    0.579430
O      -1.914059   -0.743022    2.682324
C      -0.218479   -0.477451    1.457212
C       0.228396    0.912455    1.578580
C       1.602870    1.217399    1.655009
C       2.576436    0.140490    1.596608
C       2.070656   -1.131873    1.287880
C       0.743220   -1.422621    1.229789
O      -0.664503    1.859030    1.572904
H       2.117855    2.302593    1.749634
H       3.648508    0.462631    1.702204
H       2.826201   -1.987552    1.036843
H       0.276196   -2.425180    0.976573
H      -1.601647    1.671329    1.131124
15
Geometry 48 of 200
N      -1.624982   -0.338043    1.465774
O      -2.178611   -1.435455    1.573289
O      -2.265211    0.707980    1.407160
C      -0.211762   -0.221833    1.565239
C       0.379008    0.980724    1.518306
C       1.778630    0.975823    1.477653
C       2.515405   -0.200255    1.533662
C       1.916420   -1.380085    1.473634
C       0.568931   -1.434949    1.484992
O      -0.249930    2.123860    1.546784
H       2.398928    1.793456    1.343784
H       3.643482   -0.327144    1.519405
H       2.445625   -2.279023    1.080752
H      -0.012167   -2.513264    1.467109
H      -1.153196    1.944478    1.452517
15
Geometry 49 of 200
N      -1.594536   -0.639408    1.457448
O      -2.317631    0.145727    0.662710
O      -1.869329   -0.750532    2.690150
C      -0.180065   -0.451002    1.360415
C       0.241811    0.860126    1.452908
C       1.585921    1.142610    1.739380
C       2.576904    0.135701    1.680110
C       2.166028   -1.088122    1.364760
C       0.732486   -1.368443    1.096484
O      -0.667701    1.804081    1.457418
H       1.939736    2.162601    1.851397
H       3.554013    0.409383    1.827129
H       2.911332   -1.950598    1.383384
H       0.394312   -2.463416    0.956132
H      -1.512827    1.354448    1.255386
15
Geometry 50 of 200
N      -1.590152   -0.633184    1.441371
O      -2.309193    0.121925    0.650302
O      -1.917794   -0.835735    2.650935
C      -0.205545   -0.449734    1.386985
C       0.250602    0.866151    1.628613
C       1.645225    1.185185    1.736333
C       2.587828    0.233459    1.644552
C       2.089108   -1.113532    1.288287
C       0.743363   -1.490176    1.209092
O      -0.617429    1.901050    1.408406
H       2.023109    2.196538    1.802802
H       3.606692    0.424277    1.480263
H       2.631879   -1.939221    1.252122
H       0.477347   -2.574310    1.046327
H      -1.549072    1.402340    1.118940
15
Geometry 51 of 200
N      -2.179776   -0.237405    1.604929
O      -2.671434   -1.351137    1.509535
O      -2.864290    0.766507    1.592083
C      -0.727042   -0.195665    1.550962
C      -0.069348    1.052670    1.517716
C       1.312701    1.126274    1.528014
C       2.058919   -0.044765    1.575912
C       1.432222   -1.358843    1.595583
C      -0.003678   -1.445235    1.449165
O      -0.705435    2.181178    1.474878
H       1.806700    1.983688    1.331516
H       3.104428    0.057484    1.464485
H       1.956063   -2.220319    1.579581
H      -0.697066   -2.305558    1.222320
H      -1.720018    2.026842    1.588353
15
Geometry 52 of 200
N      -1.612297   -0.684134    1.398719
O      -2.236702    0.131172    0.589386
O      -1.888054   -0.694364    2.616508
C      -0.174983   -0.484314    1.411573
C       0.262219    0.900373    1.530546
C       1.636289    1.200099    1.672502
C       2.551926    0.161913    1.533288
C       2.084915   -1.091207    1.280407
C       0.718835   -1.443214    1.300083
O      -0.674024    1.769288    1.605023
H       1.698528    2.270792    1.942347
H       3.625798    0.216654    1.647595
H       2.923646   -1.777217    1.565526
H       0.513138   -2.399589    1.213429
H      -1.607375    1.310686    1.288143
15
Geometry 53 of 200
N      -1.688626   -0.332186    1.532098
O      -2.186004   -1.476442    1.534864
O      -2.300674    0.766481    1.475220
C      -0.238102   -0.319699    1.471903
C       0.412001    0.939696    1.445734
C       1.859199    1.013596    1.536164
C       2.612027   -0.178480    1.500664
C       1.896399   -1.407999    1.567694
C       0.549807   -1.434119    1.390356
O      -0.247444    2.149831    1.536537
H       2.227654    1.931401    1.423135
H       3.623132    0.064765    1.414116
H       2.434858   -2.417399    1.578048
H       0.010483   -2.316515    1.547899
H      -1.239319    1.932126    1.385170
15
Geometry 54 of 200
N      -1.617231   -0.672233    1.480793
O      -2.102706    0.074041    0.563549
O      -1.920519   -0.786785    2.657698
C      -0.161080   -0.422122    1.403950
C       0.222169    0.883843    1.627063
C       1.585317    1.221549    1.715259
C       2.480151    0.187877    1.548385
C       2.053217   -1.159173    1.245763
C       0.692759   -1.483726    1.259589
O      -0.623231    1.905765    1.491560
H       1.817064    2.234763    2.022472
H       3.504369    0.458099    1.624733
H       2.983102   -1.798464    0.871365
H       0.332478   -2.553492    1.367111
H      -1.466821    1.516458    1.259094
15
Geometry 55 of 200
N      -1.559067   -0.718182    1.398020
O      -2.252586    0.207978    0.649693
O      -1.880441   -0.789885    2.627075
C      -0.155218   -0.481649    1.442204
C       0.213540    0.926580    1.642007
C       1.572154    1.264092    1.635496
C       2.529850    0.201471    1.618624
C       2.091471   -1.181029    1.332570
C       0.734701   -1.517795    1.217523
O      -0.650595    1.842736    1.480303
H       1.936098    2.312382    1.857131
H       3.581467    0.315772    1.450152
H       2.898777   -1.896284    1.201592
H       0.382142   -2.590177    1.124424
H      -1.429242    1.540655    0.897552
15
Geometry 56 of 200
N      -1.656058   -0.311238    1.520084
O      -2.170739   -1.491222    1.495679
O      -2.374887    0.688232    1.424964
C      -0.144821   -0.212721    1.597493
C       0.417567    1.006493    1.533234
C       1.872492    1.025693    1.494828
C       2.575875   -0.146621    1.474201
C       1.871576   -1.424338    1.456469
C       0.486548   -1.438891    1.525514
O      -0.212434    2.090100    1.515135
H       2.486681    1.869776    1.597429
H       3.590868   -0.272079    1.357031
H       2.336373   -2.317928    1.324266
H      -0.105980   -2.509143    1.652894
H      -1.115373    2.045265    1.338502
15
Geometry 57 of 200
N      -1.655612   -0.357512    1.454688
O      -2.202541   -1.436683    1.620870
O      -2.349291    0.701390    1.410039
C      -0.231823   -0.280618    1.477568
C       0.428494    0.893545    1.515895
C       1.809264    1.021894    1.551700
C       2.537025   -0.129628    1.518073
C       1.925463   -1.339906    1.467326
C       0.549405   -1.497957    1.438443
O      -0.149958    2.161660    1.548143
H       2.255795    1.936969    1.399881
H       3.642341   -0.119141    1.346735
H       2.408979   -2.412007    1.523222
H      -0.209412   -2.439422    1.554302
H      -1.128061    2.116407    1.425167
15
Geometry 58 of 200
N      -1.682973   -0.369048    1.482032
O      -2.163348   -1.474761    1.407616
O      -2.419069    0.724395    1.582288
C      -0.165303   -0.242299    1.477571
C       0.412851    1.037085    1.547489
C       1.817917    0.981004    1.453713
C       2.639155   -0.221045    1.468393
C       1.910748   -1.432414    1.513884
C       0.556780   -1.458854    1.593192
O      -0.199873    2.182736    1.479528
H       2.186206    1.929389    1.382517
H       3.583970   -0.006109    1.506877
H       2.278697   -2.367244    1.617891
H      -0.104774   -2.319080    1.617429
H      -1.068506    1.948815    1.535410
15
Geometry 59 of 200
N      -1.642702   -0.422864    1.494296
O      -2.197452   -1.442650    1.580876
O      -2.239506    0.653485    1.387387
C      -0.271182   -0.214196    1.577218
C       0.405676    0.973433    1.528108
C       1.813585    0.975122    1.398604
C       2.549825   -0.138299    1.548197
C       1.861460   -1.440621    1.474131
C       0.486135   -1.379917    1.463133
O      -0.159831    2.165567    1.525663
H       2.253664    2.038840    1.650557
H       3.588682    0.084681    1.815956
H       2.426445   -2.235904    1.128406
H      -0.012545   -2.388095    1.270276
H      -1.089610    1.990945    1.832948
15
Geometry 60 of 200
N      -1.629507   -0.669046    1.404759
O      -2.294301    0.086851    0.599740
O      -1.885913   -0.672168    2.664158
C      -0.212602   -0.503464    1.349386
C       0.196684    0.882319    1.635782
C       1.647847    1.234985    1.722262
C       2.543433    0.206980    1.554000
C       2.149138   -1.126043    1.381916
C       0.744941   -1.451975    1.189728
O      -0.609669    1.784164    1.530897
H       2.045331    2.227970    1.805492
H       3.673770    0.507935    1.684685
H       2.824093   -1.988579    1.068563
H       0.364546   -2.448335    0.907614
H      -1.505428    1.450390    1.164988
15
Geometry 61 of 200
N      -1.624129   -0.637055    1.376236
O      -2.267987    0.153477    0.602035
O      -1.872629   -0.805968    2.697294
C      -0.192754   -0.477348    1.377425
C       0.246443    0.885988    1.528986
C       1.620230    1.193419    1.735887
C       2.528453    0.186071    1.542175
C       2.110308   -1.177693    1.369370
C       0.758977   -1.416589    1.257137
O      -0.651927    1.850399    1.516332
H       1.798513    2.204730    1.712745
H       3.553792    0.489649    1.648764
H       3.032340   -1.852832    1.230868
H       0.354563   -2.450987    1.097108
H      -1.428377    1.404735    1.278692
15
Geometry 62 of 200
N      -2.222275   -0.270202    1.688654
O      -2.635260    0.144077    0.469122
O      -2.542182    0.262032    2.771664
C      -0.764649   -0.320667    1.736933
C      -0.105838    0.971728    1.447107
C       1.309451    1.062506    1.437391
C       2.010895    0.020050    1.682103
C       1.357393   -1.343486    1.792157
C      -0.006540   -1.451353    1.720505
O      -0.874199    1.952499    1.029580
H       1.860094    1.972580    1.140776
H       3.110029   -0.043973    1.676502
H       1.862697   -2.140953    1.471660
H      -0.580947   -2.308950    1.629718
H      -1.835695    1.518736    0.866385
15
Geometry 63 of 200
N      -2.166814   -0.223165    1.722835
O      -2.712436   -1.113522    0.928135
O      -2.852618    0.757859    2.123329
C      -0.765575   -0.133922    1.714009
C      -0.116568    1.093409    1.434621
C       1.307213    1.043774    1.450418
C       2.092099   -0.096447    1.536448
C       1.429851   -1.315537    1.622273
C       0.042744   -1.366538    1.708246
O      -0.735198    2.186080    1.212392
H       1.605729    2.102802    1.510993
H       3.189819   -0.038456    1.411641
H       1.862689   -2.415435    1.281421
H      -0.421510   -2.470668    1.657556
H      -1.726441    2.018539    1.163554
15
Geometry 64 of 200
N      -1.637269   -0.689450    1.439444
O      -2.225696    0.115507    0.474815
O      -2.081453   -0.767188    2.651222
C      -0.205131   -0.459159    1.566534
C       0.267488    0.923980    1.571935
C       1.655084    1.184283    1.602708
C       2.577635    0.274543    1.416978
C       2.105016   -1.143637    1.368921
C       0.787753   -1.451533    1.288027
O      -0.583809    1.790020    1.656903
H       1.961636    2.259121    1.883407
H       3.676667    0.472787    1.341774
H       3.004273   -1.870290    1.126249
H       0.549838   -2.475979    0.988754
H      -1.552618    1.298115    1.294494
15
Geometry 65 of 200
N      -1.602601   -0.589048    1.430212
O      -2.221632    0.236127    0.670014
O      -1.939684   -0.896757    2.595305
C      -0.155976   -0.511251    1.498627
C       0.195822    0.892282    1.557824
C       1.577431    1.179109    1.572226
C       2.574724    0.198970    1.589075
C       2.131306   -1.075858    1.318937
C       0.755419   -1.501891    1.297317
O      -0.656999    1.851547    1.471971
H       1.977087    2.076909    1.924322
H       3.743214    0.304326    1.760749
H       2.801714   -1.845622    1.084710
H       0.312726   -2.469875    1.221757
H      -1.409888    1.224830    0.996728
15
Geometry 66 of 200
N      -1.683100   -0.695255    1.398205
O      -2.255797    0.187407    0.616000
O      -1.895966   -0.791114    2.641863
C      -0.166225   -0.477457    1.375685
C       0.272937    0.858327    1.554410
C       1.652203    1.195307    1.748363
C       2.612263    0.235167    1.460148
C       2.073971   -1.093241    1.425745
C       0.741568   -1.472987    1.275453
O      -0.665206    1.819631    1.547379
H       2.098061    2.337058    1.821828
H       3.581261    0.510609    1.431388
H       2.653631   -1.968313    1.203907
H       0.403817   -2.431860    1.226497
H      -1.588387    1.286854    0.865125
15
Geometry 67 of 200
N      -1.645647   -0.374675    1.556276
O      -2.219892   -1.481043    1.552720
O      -2.302533    0.659497    1.458139
C      -0.208890   -0.290588    1.570483
C       0.448416    1.035992    1.458767
C       1.866410    0.963476    1.453838
C       2.577993   -0.185383    1.617019
C       1.855135   -1.372481    1.475484
C       0.499463   -1.441878    1.368405
O      -0.211395    2.232808    1.505077
H       2.243271    1.919716    1.509859
H       3.637201   -0.070811    1.660053
H       2.343200   -2.368127    1.518140
H       0.073265   -2.380341    1.062214
H      -1.194532    1.942723    1.321595
15
Geometry 68 of 200
N      -1.631716   -0.387636    1.492837
O      -2.203317   -1.416995    1.496830
O      -2.323766    0.727658    1.483208
C      -0.194397   -0.271408    1.438712
C       0.475330    1.017094    1.497365
C       1.823817    1.061681    1.469120
C       2.590264   -0.208620    1.456935
C       1.890292   -1.424814    1.545630
C       0.496163   -1.420450    1.569533
O      -0.273322    2.085627    1.546691
H       2.432573    1.918674    1.493177
H       3.653786   -0.065736    1.487930
H       2.473842   -2.327619    1.392419
H       0.037869   -2.371139    1.486350
H      -1.144483    1.841422    1.611329
15
Geometry 69 of 200
N      -1.678907   -0.317796    1.538139
O      -2.129767   -1.491564    1.373141
O      -2.297405    0.651760    1.562607
C      -0.182481   -0.270178    1.609492
C       0.421765    1.074939    1.603474
C       1.858951    0.951960    1.445042
C       2.511980   -0.229586    1.435391
C       1.873622   -1.373827    1.546714
C       0.451531   -1.485366    1.491047
O      -0.204110    2.211722    1.418629
H       2.213781    2.077090    1.546575
H       3.699417   -0.080162    1.449353
H       2.502700   -2.233469    1.735553
H      -0.003292   -2.479448    1.520794
H      -1.250822    2.038911    1.544778
15
Geometry 70 of 200
N      -1.551017   -0.633562    1.425968
O      -2.207780    0.164087    0.530219
O      -1.888568   -0.758884    2.649914
C      -0.191369   -0.479978    1.399990
C       0.265345    0.945112    1.586776
C       1.578813    1.197348    1.632657
C       2.547589    0.151223    1.547122
C       2.113925   -1.146103    1.284313
C       0.701278   -1.482736    1.306963
O      -0.699257    1.792399    1.601965
H       1.726767    2.321974    1.802942
H       3.587571    0.542847    1.568220
H       2.858303   -1.943071    1.365848
H       0.544849   -2.583046    1.364890
H      -1.687987    1.453836    1.283206
15
Geometry 71 of 200
N      -1.614742   -0.668551    1.300559
O      -2.265412    0.189980    0.654846
O      -1.849923   -0.761567    2.673771
C      -0.199357   -0.531525    1.421507
C       0.249912    0.893860    1.606639
C       1.611291    1.205846    1.762977
C       2.542214    0.256299    1.539023
C       2.048528   -1.131125    1.312520
C       0.766564   -1.497886    1.304271
O      -0.637059    1.810116    1.472316
H       1.885170    2.203325    1.877035
H       3.625615    0.388356    1.527320
H       2.833527   -1.817852    1.133549
H       0.333056   -2.446419    1.115547
H      -1.437069    1.238256    0.952612
15
Geometry 72 of 200
N      -1.550181   -0.649368    1.408045
O      -2.248871    0.166959    0.629714
O      -1.862470   -0.771634    2.608768
C      -0.229167   -0.466666    1.425839
C       0.226445    0.949525    1.484224
C       1.597720    1.186771    1.669918
C       2.545332    0.205663    1.568174
C       2.124397   -1.167037    1.370821
C       0.732156   -1.526968    1.295443
O      -0.678402    1.812726    1.564507
H       1.921184    2.153666    1.944220
H       3.634162    0.618478    1.456224
H       2.732744   -1.960248    1.206767
H       0.420266   -2.489236    0.877269
H      -1.598432    1.583010    1.105288
15
Geometry 73 of 200
N      -1.588464   -0.670445    1.447318
O      -2.270276    0.094712    0.597912
O      -1.926102   -0.664181    2.713324
C      -0.130643   -0.512725    1.389770
C       0.281653    0.850548    1.568134
C       1.595268    1.237892    1.736003
C       2.521735    0.173874    1.660317
C       2.063604   -1.081469    1.305349
C       0.750189   -1.446326    1.097941
O      -0.625561    1.780569    1.491430
H       1.798855    2.302168    1.907608
H       3.690015    0.287545    1.579314
H       2.762269   -1.717615    1.245967
H       0.497162   -2.518662    0.858252
H      -1.556705    1.394164    1.234258
15
Geometry 74 of 200
N      -1.659220   -0.349770    1.535806
O      -2.193377   -1.509854    1.399748
O      -2.260760    0.710945    1.573869
C      -0.234857   -0.208556    1.448317
C       0.437190    0.992112    1.537049
C       1.824693    1.044868    1.406143
C       2.557261   -0.225389    1.511187
C       1.925860   -1.463670    1.544911
C       0.506176   -1.447203    1.533124
O      -0.255515    2.197517    1.504247
H       2.315348    2.073730    1.262537
H       3.539198   -0.029576    1.742363
H       2.444773   -2.526152    1.377736
H       0.010274   -2.422153    1.822863
H      -1.121904    2.023738    1.393741
15
Geometry 75 of 200
N      -1.654274   -0.329522    1.544919
O      -2.109744   -1.472349    1.409608
O      -2.290004    0.733051    1.610245
C      -0.187484   -0.273568    1.515676
C       0.412507    1.004041    1.453542
C       1.814355    1.006493    1.517356
C       2.508002   -0.093172    1.520864
C       1.822093   -1.438670    1.548340
C       0.480462   -1.502002    1.481290
O      -0.183308    2.108596    1.420122
H       2.264338    2.035006    1.545574
H       3.731268   -0.018495    1.664367
H       2.393986   -2.204290    1.182139
H      -0.185966   -2.417461    1.498070
H      -1.119037    1.715709    1.410215
15
Geometry 76 of 200
N      -1.540973   -0.643447    1.381814
O      -2.211118    0.117471    0.574856
O      -1.867713   -0.781239    2.648891
C      -0.188744   -0.451510    1.431545
C       0.226221    0.905324    1.573002
C       1.574040    1.196256    1.704922
C       2.548310    0.190957    1.531579
C       2.053262   -1.172119    1.306248
C       0.665883   -1.448885    1.300623
O      -0.637583    1.842174    1.561042
H       1.849016    2.159639    1.780041
H       3.572049    0.568678    1.462841
H       2.966006   -1.861476    1.287605
H       0.499145   -2.529275    1.204137
H      -1.664149    1.475232    1.128802
15
Geometry 77 of 200
N      -1.717198   -0.376163    1.487472
O      -2.133684   -1.529093    1.593132
O      -2.373835    0.753664    1.413075
C      -0.245862   -0.202722    1.553960
C       0.402166    0.989184    1.550367
C       1.851388    0.970781    1.571169
C       2.573749   -0.117575    1.490463
C       1.871773   -1.435073    1.395496
C       0.544904   -1.501417    1.481288
O      -0.148850    2.177147    1.438661
H       2.446225    1.932746    1.856537
H       3.570199   -0.098773    1.614307
H       2.483108   -2.372676    1.388563
H       0.032807   -2.328247    1.376824
H      -1.162147    2.075895    1.729996
15
Geometry 78 of 200
N      -1.632668   -0.690981    1.423520
O      -2.261091    0.106870    0.582338
O      -1.953784   -0.710888    2.688241
C      -0.184164   -0.489386    1.411669
C       0.321704    0.872817    1.628285
C       1.624633    1.239455    1.751483
C       2.542662    0.215071    1.582919
C       2.095578   -1.093942    1.221689
C       0.724524   -1.484278    1.205603
O      -0.620380    1.809511    1.505662
H       1.842795    2.237516    1.909549
H       3.621487    0.436851    1.585912
H       2.829482   -1.923271    1.341053
H       0.652912   -2.437293    1.267378
H      -1.465473    1.373838    0.941291
15
Geometry 79 of 200
N      -1.683580   -0.325755    1.472785
O      -2.107485   -1.476736    1.374133
O      -2.359758    0.690595    1.605273
C      -0.214294   -0.228713    1.557291
C       0.442312    0.975727    1.491701
C       1.803649    0.943857    1.498591
C       2.541505   -0.159243    1.406970
C       1.885033   -1.358410    1.530896
C       0.486830   -1.442224    1.635017
O      -0.165261    2.137903    1.453509
H       2.343272    1.967413    1.586886
H       3.564476   -0.210599    1.357279
H       2.347038   -2.395051    1.746494
H       0.085613   -2.374346    1.301692
H      -1.212718    1.985379    1.614228
15
Geometry 80 of 200
N      -1.647269   -0.337583    1.508284
O      -2.071018   -1.455992    1.589728
O      -2.317732    0.692360    1.405809
C      -0.244637   -0.241604    1.514695
C       0.444370    1.037879    1.475365
C       1.809630    0.988354    1.640307
C       2.568214   -0.221026    1.482250
C       1.874773   -1.466864    1.423250
C       0.460605   -1.482285    1.493717
O      -0.247898    2.206548    1.512248
H       2.085760    1.988878    1.368411
H       3.649397   -0.134003    1.468486
H       2.574701   -2.271711    1.349045
H      -0.002991   -2.470371    1.411480
H      -1.208027    2.055775    1.312925
15
Geometry 81 of 200
N      -1.633839   -0.427564    1.451968
O      -2.233738   -1.458200    1.552635
O      -2.242860    0.746070    1.445432
C      -0.211001   -0.235930    1.516144
C       0.382695    1.034935    1.433309
C       1.812288    1.004407    1.432239
C       2.595303   -0.173635    1.460351
C       1.902525   -1.436469    1.553640
C       0.517288   -1.496753    1.485226
O      -0.253072    2.182655    1.599128
H       2.326938    1.900465    1.703982
H       3.732392   -0.070425    1.579586
H       2.568982   -2.366280    1.637836
H      -0.033969   -2.508631    1.491827
H      -1.267862    2.092011    1.634734
15
Geometry 82 of 200
N      -1.620623   -0.685757    1.468291
O      -2.238042    0.116902    0.592915
O      -1.887901   -0.701312    2.661914
C      -0.211635   -0.512437    1.356148
C       0.208783    0.818372    1.610521
C       1.603198    1.239235    1.705837
C       2.546817    0.209263    1.617763
C       2.118484   -1.109183    1.248270
C       0.736506   -1.480566    1.224561
O      -0.610863    1.851874    1.482883
H       1.788908    2.352898    2.047063
H       3.584397    0.318156    1.944875
H       2.882650   -1.957856    0.994694
H       0.453951   -2.470144    1.124021
H      -1.419774    1.446059    1.246393
15
Geometry 83 of 200
N      -2.118503   -0.271692    1.666819
O      -2.696135    0.249272    0.519062
O      -2.519783    0.127201    2.740934
C      -0.702037   -0.288332    1.626900
C      -0.057011    0.991506    1.479361
C       1.282249    1.132146    1.395858
C       1.979906   -0.033803    1.657407
C       1.364791   -1.372462    1.662527
C       0.018188   -1.432406    1.723907
O      -0.884728    1.854566    1.004369
H       1.839612    2.074451    1.190618
H       3.014084   -0.097029    1.668626
H       1.997560   -2.205331    1.842502
H      -0.603904   -2.351333    1.566123
H      -1.903831    1.503260    0.696035
15
Geometry 84 of 200
N      -1.630868   -0.691011    1.404864
O      -2.284273    0.187015    0.650608
O      -1.840993   -0.802253    2.598879
C      -0.193606   -0.518263    1.426902
C       0.245947    0.960734    1.530553
C       1.620322    1.213712    1.697162
C       2.506408    0.165225    1.589706
C       2.125236   -1.119448    1.332332
C       0.768354   -1.507641    1.278263
O      -0.655412    1.895556    1.485150
H       1.904030    2.084285    1.955659
H       3.578811    0.327045    1.461252
H       2.773482   -1.885200    1.386159
H       0.373545   -2.480424    1.047570
H      -1.464167    1.170420    1.396363
15
Geometry 85 of 200
N      -1.602651   -0.668255    1.351151
O      -2.168994    0.055920    0.594912
O      -1.866665   -0.677627    2.688842
C      -0.213159   -0.409930    1.410385
C       0.213431    0.890001    1.503479
C       1.574591    1.121035    1.746141
C       2.498374    0.165356    1.598634
C       2.098081   -1.157591    1.237979
C       0.799883   -1.462477    1.272387
O      -0.666070    1.869848    1.583584
H       1.512270    2.310037    1.672012
H       3.621677    0.497165    1.687492
H       2.965588   -1.897784    1.084502
H       0.127947   -2.417015    1.190033
H      -1.498648    1.514007    1.320855
15
Geometry 86 of 200
N      -2.130795   -0.285891    1.750219
O      -2.750967   -1.056733    0.970283
O      -2.794635    0.684166    2.145708
C      -0.705215   -0.197366    1.703483
C      -0.057269    1.058163    1.498992
C       1.351594    1.108842    1.473575
C       2.013154   -0.075600    1.510654
C       1.327523   -1.384942    1.559306
C      -0.054359   -1.404203    1.573773
O      -0.818209    2.105451    1.178930
H       1.947457    2.083371    1.642815
H       3.096073    0.003084    1.476881
H       1.870519   -2.292794    1.713611
H      -0.602907   -2.221829    1.169592
H      -1.732938    1.821981    1.176476
15
Geometry 87 of 200
N      -1.536036   -0.361029    1.473382
O      -2.163753   -1.474177    1.532061
O      -2.283746    0.657456    1.488893
C      -0.231541   -0.220324    1.428499
C       0.403473    1.080063    1.470828
C       1.783622    0.991468    1.522492
C       2.461588   -0.223215    1.457289
C       1.818627   -1.431385    1.488503
C       0.555152   -1.394431    1.585703
O      -0.192170    2.155112    1.542277
H       2.392904    1.850765    1.579132
H       3.513868   -0.077398    1.598616
H       2.393790   -2.354645    1.482865
H      -0.051704   -2.331454    1.388402
H      -1.109325    1.771208    1.409589
15
Geometry 88 of 200
N      -1.695621   -0.577688    1.379004
O      -2.345643    0.206904    0.673172
O      -1.868190   -0.873243    2.703098
C      -0.163607   -0.469005    1.316945
C       0.337333    0.840189    1.519682
C       1.584187    1.192042    1.720967
C       2.530783    0.276172    1.611073
C       2.137674   -1.172268    1.399975
C       0.807590   -1.444016    1.224982
O      -0.627854    1.807777    1.455415
H       1.809838    2.169937    1.748424
H       3.560384    0.378906    1.646312
H       2.878781   -2.068557    1.389836
H       0.368545   -2.365400    1.136333
H      -1.388347    1.478486    1.087421
15
Geometry 89 of 200
N      -1.659890   -0.370633    1.487010
O      -2.199671   -1.424028    1.539620
O      -2.248169    0.682296    1.431786
C      -0.188069   -0.274583    1.543519
C       0.382391    0.951183    1.536495
C       1.785557    0.975572    1.590216
C       2.570451   -0.138017    1.433738
C       1.901295   -1.417137    1.377929
C       0.523710   -1.497924    1.534890
O      -0.231007    2.225131    1.492978
H       2.507919    1.836999    1.611911
H       3.478780   -0.130096    1.605486
H       2.617407   -2.261247    1.647308
H      -0.173486   -2.469475    1.833637
H      -1.245277    2.140048    1.382563
15
Geometry 90 of 200
N      -1.595486   -0.378531    1.516797
O      -2.163427   -1.428094    1.554305
O      -2.321774    0.619006    1.403907
C      -0.178912   -0.206049    1.511488
C       0.443466    1.057860    1.538106
C       1.827610    1.006509    1.487077
C       2.595970   -0.240054    1.511683
C       1.825183   -1.400888    1.447290
C       0.435251   -1.447969    1.463671
O      -0.243178    2.175146    1.541500
H       2.413459    1.990720    1.453888
H       3.646751   -0.254547    1.641376
H       2.505749   -2.200192    1.343778
H      -0.001614   -2.349811    1.865973
H      -1.133890    1.858374    1.419426
15
Geometry 91 of 200
N      -1.634205   -0.622924    1.338608
O      -2.219118    0.070833    0.609383
O      -1.901497   -0.674137    2.699174
C      -0.154136   -0.426579    1.280076
C       0.252816    0.875088    1.616684
C       1.675872    1.212189    1.719509
C       2.502543    0.221148    1.541503
C       2.104072   -1.190075    1.281392
C       0.748476   -1.492337    1.322650
O      -0.687571    1.800935    1.575905
H       1.767434    2.328515    1.928647
H       3.534218    0.465077    1.737667
H       2.880444   -1.927653    1.100881
H       0.480818   -2.505836    1.100788
H      -1.754116    1.212035    1.179723
15
Geometry 92 of 200
N      -1.683344   -0.372895    1.513374
O      -2.090471   -1.432159    1.484154
O      -2.377012    0.726200    1.533257
C      -0.204004   -0.255139    1.438879
C       0.415218    0.967842    1.498058
C       1.838516    0.983457    1.575949
C       2.564224   -0.207561    1.406977
C       1.879684   -1.389378    1.601790
C       0.513493   -1.419809    1.471408
O      -0.225705    2.145741    1.516073
H       2.339528    1.848896    1.099948
H       3.680259   -0.200713    1.500112
H       2.554468   -2.416357    1.780734
H      -0.037183   -2.387336    1.309811
H      -1.197521    2.081422    1.320426
15
Geometry 93 of 200
N      -1.642715   -0.375345    1.528131
O      -2.147636   -1.432554    1.548372
O      -2.276472    0.709144    1.420871
C      -0.194974   -0.268536    1.536488
C       0.419354    0.982411    1.536274
C       1.834221    0.983323    1.508571
C       2.524617   -0.151295    1.487595
C       1.877775   -1.459739    1.462683
C       0.502807   -1.470414    1.511797
O      -0.265330    2.199003    1.513033
H       2.287941    1.980921    1.439208
H       3.590261   -0.148436    1.563370
H       2.551619   -2.277923    1.524852
H      -0.049932   -2.423865    1.021795
H      -1.090545    2.021048    1.386949
15
Geometry 94 of 200
N      -1.593595   -0.380011    1.567262
O      -2.199984   -1.455853    1.560238
O      -2.285456    0.716932    1.392862
C      -0.226883   -0.284989    1.528378
C       0.432644    0.991862    1.566504
C       1.780417    0.995136    1.596763
C       2.489312   -0.157027    1.526666
C       1.927408   -1.462726    1.363522
C       0.520540   -1.444092    1.485457
O      -0.202442    2.191210    1.425158
H       2.121582    1.877421    1.744968
H       3.641074   -0.005889    1.499231
H       2.595673   -2.272748    1.124478
H      -0.123891   -2.252247    1.666366
H      -1.194772    2.050316    1.547064
15
Geometry 95 of 200
N      -1.583968   -0.609401    1.422614
O      -2.293258    0.138325    0.627618
O      -1.916300   -0.823475    2.660334
C      -0.174477   -0.524530    1.448928
C       0.267730    0.944513    1.591699
C       1.665443    1.242728    1.720901
C       2.519994    0.174079    1.584883
C       2.082957   -1.118049    1.294528
C       0.753281   -1.459622    1.210622
O      -0.652004    1.824103    1.448304
H       1.985890    2.330044    1.875938
H       3.621699    0.383606    1.727737
H       2.758917   -2.076931    1.342420
H       0.452127   -2.532364    1.019982
H      -1.496863    1.453045    1.077891
15
Geometry 96 of 200
N      -1.611428   -0.355888    1.535001
O      -2.173575   -1.447635    1.547416
O      -2.222955    0.661895    1.461290
C      -0.246871   -0.302282    1.472275
C       0.426970    0.962990    1.462504
C       1.812607    0.976506    1.557448
C       2.453558   -0.156972    1.526029
C       1.824013   -1.351108    1.502565
C       0.494960   -1.400512    1.424002
O      -0.183064    2.150390    1.504535
H       2.416909    1.871523    1.718432
H       3.552506   -0.063559    1.311028
H       2.410435   -2.177884    1.341733
H       0.257164   -2.424579    1.694488
H      -1.201104    2.033909    1.314224
15
Geometry 97 of 200
N      -1.628440   -0.618916    1.380551
O      -2.344431    0.130616    0.696852
O      -1.784698   -0.743015    2.637316
C      -0.174312   -0.474930    1.360241
C       0.250662    0.869775    1.483014
C       1.568788    1.257106    1.712730
C       2.510006    0.171122    1.679635
C       2.127104   -1.159054    1.357463
C       0.767512   -1.494223    1.152431
O      -0.628232    1.836830    1.493295
H       1.755870    2.338335    1.852724
H       3.504374    0.207724    1.927709
H       3.021065   -2.008142    1.309897
H       0.478758   -2.568005    1.125900
H      -1.567401    1.521525    1.179762
15
Geometry 98 of 200
N      -2.216468   -0.218017    1.410480
O      -2.758111   -1.405331    1.518396
O      -2.838192    0.760733    1.451691
C      -0.677393   -0.229544    1.556483
C      -0.138432    1.039536    1.508291
C       1.322794    1.121818    1.363982
C       2.020492   -0.054238    1.510465
C       1.420613   -1.378721    1.507427
C       0.012735   -1.374865    1.606927
O      -0.705607    2.278648    1.616109
H       1.622761    2.084832    1.596192
H       3.077147    0.040139    1.439118
H       1.926715   -2.186475    1.339659
H      -0.465140   -2.271686    1.568978
H      -1.601215    1.836721    1.536004
15
Geometry 99 of 200
N      -1.644177   -0.401237    1.529807
O      -2.234381   -1.396792    1.525230
O      -2.264675    0.679761    1.487378
C      -0.214115   -0.187257    1.483441
C       0.383275    0.981228    1.502855
C       1.813620    1.007963    1.573902
C       2.582382   -0.159975    1.529892
C       1.914158   -1.408651    1.447435
C       0.542368   -1.489842    1.486323
O      -0.221978    2.139764    1.455060
H       2.363384    2.019021    1.451801
H       3.584695   -0.061519    1.552496
H       2.349048   -2.505847    1.342772
H       0.027130   -2.442873    1.438717
H      -1.253834    1.840455    1.483120
15
Geometry 100 of 200
N      -1.587039   -0.612217    1.404291
O      -2.203911    0.147755    0.669692
O      -1.952911   -0.832574    2.656272
C      -0.156791   -0.435518    1.349138
C       0.284236    0.887647    1.508247
C       1.650095    1.259151    1.644775
C       2.553150    0.184712    1.584966
C       2.036806   -1.165279    1.384200
C       0.749138   -1.430009    1.257468
O      -0.682388    1.769360    1.553940
H       1.837920    2.311777    1.797101
H       3.623801    0.511297    1.498526
H       2.803783   -1.996315    1.264846
H       0.192614   -2.292232    1.102133
H      -1.494452    1.383552    0.907183
15
Geometry 101 of 200
N      -1.611573   -0.651629    1.392160
O      -2.282854    0.164380    0.598366
O      -1.858518   -0.866076    2.669368
C      -0.171288   -0.391890    1.360748
C       0.204793    0.884360    1.562304
C       1.691713    1.191653    1.524117
C       2.553091    0.136306    1.628403
C       2.070301   -1.101727    1.389831
C       0.703577   -1.358251    1.277574
O      -0.666173    1.812215    1.561402
H       2.153500    2.235226    1.738891
H       3.598248    0.409538    1.801936
H       2.839758   -2.071335    1.473184
H       0.464817   -2.536345    1.045692
H      -1.448822    1.410267    1.250041
15
Geometry 102 of 200
N      -1.587829   -0.666946    1.446253
O      -2.195118    0.197513    0.550763
O      -2.012272   -0.854302    2.660043
C      -0.203259   -0.432187    1.526606
C       0.230015    0.898431    1.565980
C       1.708139    1.239097    1.699872
C       2.579091    0.230883    1.466181
C       2.080258   -1.171944    1.306554
C       0.741175   -1.415702    1.261651
O      -0.660537    1.772377    1.511474
H       1.917440    2.188456    1.717466
H       3.490409    0.379639    1.567331
H       2.899241   -1.890487    1.376297
H       0.452737   -2.518187    1.287360
H      -1.618732    1.351664    1.346002
15
Geometry 103 of 200
N      -1.632621   -0.608668    1.461154
O      -2.166481    0.142538    0.534731
O      -1.929725   -0.773934    2.664914
C      -0.210065   -0.470269    1.385132
C       0.211661    0.897756    1.585888
C       1.651376    1.239999    1.605930
C       2.493791    0.193322    1.501982
C       2.137033   -1.166618    1.353892
C       0.759700   -1.467463    1.249584
O      -0.681926    1.789756    1.621685
H       2.021421    2.274187    1.779896
H       3.528311    0.378207    1.685007
H       2.982747   -2.001484    1.457040
H       0.473128   -2.383238    1.180460
H      -1.510377    1.299885    1.132632
15
Geometry 104 of 200
N      -1.571545   -0.639177    1.408546
O      -2.324341    0.140241    0.611864
O      -1.828649   -0.727398    2.663015
C      -0.176814   -0.432007    1.331774
C       0.213852    0.941653    1.595380
C       1.622025    1.203078    1.729312
C       2.521118    0.174374    1.587566
C       2.103372   -1.190320    1.351829
C       0.748652   -1.469656    1.205803
O      -0.687138    1.783524    1.497259
H       2.201345    2.030683    1.987498
H       3.632632    0.483704    1.606777
H       3.097666   -1.857589    1.347397
H       0.495588   -2.490964    1.159209
H      -1.672803    1.360915    1.175472
15
Geometry 105 of 200
N      -1.591246   -0.787460    1.420357
O      -2.154807    0.124557    0.602786
O      -1.910468   -0.734091    2.631318
C      -0.189372   -0.467432    1.426160
C       0.241087    0.954693    1.659309
C       1.581019    1.205263    1.722788
C       2.526818    0.205828    1.523452
C       2.025061   -1.122317    1.332190
C       0.710188   -1.481657    1.216998
O      -0.604634    1.873552    1.506567
H       1.950513    2.264329    1.683102
H       3.588791    0.490930    1.448230
H       2.762248   -1.918128    1.115678
H       0.263691   -2.438045    1.147836
H      -1.586486    1.257073    1.263807
15
Geometry 106 of 200
N      -1.667711   -0.380039    1.482621
O      -2.169629   -1.463670    1.610577
O      -2.292778    0.665843    1.499579
C      -0.267283   -0.263072    1.409009
C       0.451394    0.994088    1.493245
C       1.822064    1.025420    1.598930
C       2.597604   -0.193208    1.554461
C       1.856964   -1.380389    1.474308
C       0.483541   -1.423830    1.400603
O      -0.198206    2.181133    1.450516
H       2.489013    2.065088    1.682017
H       3.723479   -0.127605    1.656150
H       2.297453   -2.417308    1.246514
H      -0.049933   -2.405466    1.491675
H      -1.139131    1.870271    1.409418
15
Geometry 107 of 200
N      -1.558336   -0.709649    1.376299
O      -2.285708    0.183873    0.585646
O      -1.853876   -0.770983    2.627199
C      -0.174571   -0.538557    1.458658
C       0.336852    0.924237    1.611367
C       1.624696    1.243190    1.702366
C       2.470685    0.201368    1.517573
C       2.062207   -1.132297    1.356341
C       0.686109   -1.527494    1.288934
O      -0.662123    1.830177    1.522566
H       2.065246    2.302481    1.720503
H       3.536846    0.504085    1.647223
H       2.876206   -1.748562    1.003660
H       0.488833   -2.362718    1.137179
H      -1.617244    1.553632    1.127510
15
Geometry 108 of 200
N      -1.643917   -0.391811    1.432994
O      -2.227366   -1.458803    1.642528
O      -2.335929    0.645826    1.380792
C      -0.218000   -0.276416    1.458993
C       0.391922    0.979545    1.556017
C       1.832365    1.053096    1.530961
C       2.511820   -0.150787    1.485396
C       1.863535   -1.391538    1.443066
C       0.525145   -1.453904    1.480026
O      -0.085612    2.184613    1.566499
H       2.146178    1.964327    1.559051
H       3.659039   -0.088604    1.487369
H       2.567439   -2.269553    1.394244
H      -0.063671   -2.434933    1.746833
H      -1.020648    2.138683    1.362456
15
Geometry 109 of 200
N      -1.616238   -0.631508    1.448698
O      -2.270074    0.090068    0.576362
O      -1.961736   -0.831695    2.689261
C      -0.210676   -0.432494    1.462844
C       0.301649    0.885177    1.587483
C       1.704112    1.246008    1.699489
C       2.540118    0.217325    1.599591
C       2.077627   -1.132622    1.285214
C       0.720181   -1.474423    1.203563
O      -0.626299    1.839763    1.489620
H       1.954312    2.423598    1.821488
H       3.610736    0.470685    1.648260
H       2.816765   -1.970608    1.208212
H       0.506441   -2.594577    0.948267
H      -1.411457    1.573753    0.937942
15
Geometry 110 of 200
N      -1.640029   -0.363916    1.481917
O      -2.151897   -1.490921    1.550072
O      -2.266715    0.694142    1.463634
C      -0.245233   -0.230184    1.483384
C       0.401644    0.949269    1.478614
C       1.825553    1.002988    1.551775
C       2.583976   -0.169196    1.495261
C       1.809797   -1.355817    1.435947
C       0.510677   -1.459149    1.530357
O      -0.199626    2.160619    1.494528
H       2.213385    1.933506    1.649826
H       3.699587   -0.311639    1.594899
H       2.321053   -2.269552    1.421977
H      -0.072150   -2.244537    1.549102
H      -1.095581    2.115814    1.649249
15
Geometry 111 of 200
N      -1.723618   -0.342867    1.569472
O      -2.219991   -1.431509    1.410387
O      -2.322363    0.700239    1.457118
C      -0.186502   -0.254325    1.580062
C       0.390575    1.043262    1.538399
C       1.810357    0.971938    1.427514
C       2.568703   -0.157681    1.480680
C       1.913252   -1.418610    1.508040
C       0.563480   -1.496579    1.561533
O      -0.177838    2.129692    1.512928
H       2.361795    1.831665    1.331612
H       3.530294   -0.025538    1.312251
H       2.693747   -2.153983    1.466556
H       0.314221   -2.432316    1.531639
H      -1.199954    1.805883    1.688444
15
Geometry 112 of 200
N      -1.693697   -0.388802    1.491990
O      -2.152304   -1.398187    1.491298
O      -2.303729    0.719786    1.527604
C      -0.146181   -0.295757    1.537833
C       0.434246    0.991827    1.580917
C       1.757718    0.972707    1.539164
C       2.571529   -0.157592    1.508538
C       1.886361   -1.399761    1.456472
C       0.496294   -1.484344    1.485838
O      -0.203312    2.163391    1.419770
H       2.156804    1.981755    1.561286
H       3.553901   -0.079278    1.436128
H       2.551858   -2.204637    1.429134
H      -0.012981   -2.370399    1.506407
H      -1.231096    1.750850    1.352068
15
Geometry 113 of 200
N      -1.632508   -0.355892    1.475142
O      -2.103891   -1.450617    1.480587
O      -2.393331    0.670149    1.487522
C      -0.275723   -0.294050    1.625437
C       0.401175    1.020135    1.528682
C       1.842405    0.983605    1.477409
C       2.532787   -0.204423    1.478296
C       1.908894   -1.407303    1.506501
C       0.512551   -1.446921    1.471486
O      -0.151676    2.216381    1.499634
H       2.199692    1.979511    1.314912
H       3.583780   -0.261454    1.574293
H       2.434115   -2.334043    1.430025
H      -0.016452   -2.439073    1.560497
H      -1.222262    2.161270    1.455111
15
Geometry 114 of 200
N      -1.643529   -0.323462    1.528323
O      -2.172506   -1.447823    1.636978
O      -2.313474    0.643630    1.354730
C      -0.217827   -0.240080    1.478525
C       0.433234    1.034506    1.459013
C       1.800213    0.963209    1.547733
C       2.494258   -0.189906    1.547314
C       1.919859   -1.455417    1.419389
C       0.490893   -1.427785    1.465952
O      -0.198993    2.161565    1.546297
H       2.358089    2.002736    1.594644
H       3.712559   -0.031291    1.571012
H       2.775014   -2.178133    1.350679
H      -0.042284   -2.320081    1.286768
H      -1.110236    2.019779    1.604692
15
Geometry 115 of 200
N      -1.694127   -0.384523    1.495993
O      -2.242576   -1.486862    1.517870
O      -2.325906    0.711477    1.471715
C      -0.233331   -0.234261    1.554388
C       0.446566    0.991464    1.527205
C       1.834084    1.013252    1.449997
C       2.554543   -0.170825    1.501151
C       1.897553   -1.390316    1.479064
C       0.548420   -1.418586    1.493347
O      -0.184663    2.148845    1.498799
H       2.570592    1.948501    1.688833
H       3.600378   -0.205150    1.681172
H       2.724591   -2.283184    1.444022
H       0.064015   -2.432159    1.378695
H      -1.026232    1.763917    1.471059
15
Geometry 116 of 200
N      -1.647078   -0.606594    1.326509
O      -2.319033    0.197591    0.635537
O      -1.729312   -0.751377    2.715240
C      -0.252746   -0.434783    1.251488
C       0.246749    0.832520    1.535402
C       1.582438    1.148769    1.764063
C       2.550289    0.223669    1.566674
C       2.172377   -1.180540    1.415316
C       0.784196   -1.493921    1.298308
O      -0.716687    1.804244    1.516474
H       1.809132    2.300303    1.915916
H       3.627653    0.449207    1.672457
H       2.806430   -1.964893    1.155305
H       0.360931   -2.442424    1.013818
H      -1.406444    1.472459    0.891412
15
Geometry 117 of 200
N      -2.130205   -0.275565    1.729519
O      -2.555307   -0.122433    0.467816
O      -2.649841    0.457394    2.607279
C      -0.722939   -0.270690    1.832485
C      -0.157220    1.014240    1.519593
C       1.346046    1.114680    1.449068
C       2.016714   -0.064992    1.582622
C       1.404390   -1.331934    1.603966
C       0.024628   -1.383248    1.646607
O      -0.891504    1.997083    1.036582
H       1.751271    2.135794    1.536819
H       3.091928   -0.151054    1.502477
H       1.901045   -2.274492    1.651835
H      -0.543643   -2.350803    1.454352
H      -1.911765    1.531541    0.866016
15
Geometry 118 of 200
N      -1.588861   -0.684246    1.443537
O      -2.203023    0.113416    0.594613
O      -1.895863   -0.758692    2.657975
C      -0.210502   -0.444100    1.297437
C       0.246004    0.951828    1.639609
C       1.665246    1.221540    1.625122
C       2.463590    0.152183    1.611748
C       2.114992   -1.202931    1.337172
C       0.755708   -1.442568    1.248803
O      -0.688937    1.856888    1.543286
H       1.946387    2.341090    1.735142
H       3.463847    0.460431    1.652834
H       2.900856   -2.059016    1.015473
H       0.457438   -2.378854    1.217722
H      -1.656046    1.394148    1.318398
15
Geometry 119 of 200
N      -1.672782   -0.661568    1.442043
O      -2.355472    0.152490    0.630845
O      -1.893269   -0.774510    2.715705
C      -0.157142   -0.517719    1.264640
C       0.298993    0.851861    1.549912
C       1.628095    1.211163    1.675319
C       2.537466    0.208973    1.640209
C       2.171128   -1.117722    1.383367
C       0.750071   -1.470956    1.149576
O      -0.625954    1.874043    1.494477
H       1.984256    2.159423    1.847079
H       3.623241    0.418485    1.987787
H       2.827561   -1.731689    1.389777
H       0.529508   -2.514010    0.961752
H      -1.475114    1.436317    1.169276
15
Geometry 120 of 200
N      -2.182781   -0.284245    1.671084
O      -2.636545   -1.137309    0.907596
O      -2.824604    0.667711    2.145805
C      -0.721996   -0.220739    1.715757
C      -0.057369    1.090650    1.497316
C       1.308851    1.025867    1.403697
C       1.968656   -0.123015    1.510843
C       1.372661   -1.358391    1.547716
C      -0.020032   -1.433714    1.596945
O      -0.749626    2.190456    1.154673
H       1.746632    2.065179    1.335656
H       3.096131   -0.115493    1.858836
H       1.903521   -2.196147    1.517938
H      -0.433933   -2.307651    1.366674
H      -1.691523    2.085441    1.240052
15
Geometry 121 of 200
N      -1.655324   -0.393247    1.504971
O      -2.102271   -1.445697    1.600729
O      -2.336528    0.713103    1.417114
C      -0.228688   -0.276810    1.469598
C       0.410917    1.034726    1.468504
C       1.858277    0.967925    1.503430
C       2.558187   -0.191203    1.528711
C       1.860764   -1.405656    1.519729
C       0.467063   -1.470756    1.414897
O      -0.222097    2.200555    1.543126
H       2.281831    1.945442    1.504614
H       3.638627   -0.326817    1.533757
H       2.656383   -2.205410    1.535380
H       0.084560   -2.411826    1.272684
H      -1.252679    1.999879    1.712575
15
Geometry 122 of 200
N      -1.633411   -0.697289    1.427696
O      -2.231633    0.124556    0.600137
O      -1.852701   -0.715210    2.658911
C      -0.227404   -0.446670    1.378524
C       0.203404    0.927677    1.495335
C       1.624667    1.190377    1.630667
C       2.507628    0.169392    1.619425
C       2.146127   -1.171697    1.400336
C       0.798408   -1.453337    1.179542
O      -0.707713    1.852723    1.600486
H       2.103835    2.141575    1.904010
H       3.731214    0.258963    1.598738
H       2.967350   -1.939770    1.122301
H       0.390216   -2.479843    1.087715
H      -1.530174    1.444375    1.075240
15
Geometry 123 of 200
N      -1.652784   -0.336072    1.482813
O      -2.143073   -1.475952    1.517868
O      -2.267487    0.661688    1.531921
C      -0.299565   -0.209412    1.485080
C       0.398531    0.938700    1.407274
C       1.746392    0.913170    1.412532
C       2.575285   -0.161230    1.583666
C       1.947918   -1.370842    1.512683
C       0.448599   -1.396072    1.437359
O      -0.160653    2.187339    1.552328
H       2.059317    1.954369    1.548232
H       3.783075   -0.119319    1.849735
H       2.504057   -2.348313    1.494144
H      -0.150351   -2.437245    1.616188
H      -1.006035    2.020222    1.448274
15
Geometry 124 of 200
N      -1.650783   -0.360132    1.432995
O      -2.155031   -1.446896    1.687397
O      -2.343171    0.620783    1.255476
C      -0.247509   -0.286950    1.561223
C       0.403220    1.035970    1.554874
C       1.829803    0.955258    1.536321
C       2.507062   -0.230554    1.457967
C       1.926487   -1.388045    1.380531
C       0.509037   -1.451167    1.541119
O      -0.141784    2.249032    1.594000
H       2.170791    2.085353    1.523165
H       3.627966   -0.072178    1.462496
H       2.527813   -2.328107    1.285857
H      -0.091452   -2.271523    1.459001
H      -1.233284    2.173441    1.738407
15
Geometry 125 of 200
N      -1.610692   -0.547834    1.478422
O      -2.373691    0.024409    0.585785
O      -1.847435   -0.712527    2.680486
C      -0.129814   -0.427596    1.247398
C       0.280859    0.927885    1.596524
C       1.667891    1.246876    1.752224
C       2.530109    0.167490    1.659498
C       2.056904   -1.191048    1.342484
C       0.796097   -1.490224    1.128705
O      -0.699982    1.819811    1.513985
H       2.133804    2.148816    1.774736
H       3.625017    0.358316    1.723756
H       2.814479   -1.948005    1.362502
H       0.558811   -2.550095    1.010868
H      -1.609569    1.286813    1.266992
15
Geometry 126 of 200
N      -2.143705   -0.306312    1.681951
O      -2.691846   -1.088407    0.950631
O      -2.704552    0.684668    2.116156
C      -0.720908   -0.219834    1.728500
C      -0.125523    1.032889    1.531517
C       1.326135    1.089823    1.483508
C       2.048072   -0.085253    1.551463
C       1.329783   -1.296396    1.528412
C       0.017411   -1.422372    1.587201
O      -0.730686    2.161649    1.246861
H       1.693027    2.066740    1.573657
H       3.110636   -0.171946    1.608758
H       1.904587   -2.088688    1.386024
H      -0.651891   -2.237357    1.332140
H      -1.729572    1.873344    1.179448
15
Geometry 127 of 200
N      -1.696569   -0.334431    1.520283
O      -2.252735   -1.436630    1.485567
O      -2.314945    0.716735    1.519237
C      -0.195854   -0.293131    1.505459
C       0.427531    0.994682    1.469505
C       1.874511    1.012694    1.548614
C       2.546480   -0.146535    1.509601
C       1.937980   -1.392226    1.470711
C       0.533205   -1.467382    1.524519
O      -0.225376    2.089607    1.455783
H       2.374168    2.082659    1.600091
H       3.766001   -0.054335    1.498959
H       2.501939   -2.248633    1.394359
H       0.137888   -2.440482    1.401683
H      -1.072699    1.860156    1.564472
15
Geometry 128 of 200
N      -1.752331   -0.310910    1.514125
O      -2.085175   -1.472870    1.504194
O      -2.429422    0.675488    1.503286
C      -0.208943   -0.211556    1.426206
C       0.429330    0.957930    1.390968
C       1.836363    0.978249    1.443538
C       2.588289   -0.197303    1.522448
C       1.873192   -1.480625    1.607834
C       0.573712   -1.399042    1.475665
O      -0.180707    2.189676    1.587206
H       2.222395    2.061502    1.460122
H       3.704959   -0.055876    1.442274
H       2.331769   -2.595724    1.446245
H       0.177718   -2.341164    1.447435
H      -1.110473    2.129142    1.563089
15
Geometry 129 of 200
N      -1.641498   -0.420593    1.489838
O      -2.160459   -1.444227    1.558962
O      -2.259247    0.708291    1.463009
C      -0.209507   -0.230504    1.484745
C       0.391752    1.059579    1.464018
C       1.806275    1.002179    1.529146
C       2.582782   -0.168924    1.485629
C       1.888334   -1.509163    1.515506
C       0.494143   -1.439990    1.468085
O      -0.264589    2.188473    1.510971
H       2.465758    2.106700    1.612575
H       3.569492   -0.228921    1.615009
H       2.370064   -2.519924    1.432484
H       0.034522   -2.356903    1.375028
H      -1.145776    2.013612    1.670191
15
Geometry 130 of 200
N      -1.666063   -0.345406    1.574206
O      -2.128950   -1.426210    1.552053
O      -2.305275    0.618706    1.452940
C      -0.263390   -0.219401    1.441571
C       0.457934    0.950980    1.530975
C       1.814731    1.002532    1.485307
C       2.515836   -0.213573    1.546462
C       1.906228   -1.401820    1.495325
C       0.490102   -1.379192    1.424042
O      -0.186384    2.145671    1.497885
H       2.300489    1.961690    1.556021
H       3.470516   -0.135413    1.657560
H       2.394365   -2.260460    1.519960
H      -0.037281   -2.268276    1.231746
H      -1.112970    2.101709    1.355144
15
Geometry 131 of 200
N      -1.704220   -0.393581    1.453662
O      -2.207110   -1.461757    1.517471
O      -2.283136    0.698158    1.457141
C      -0.268039   -0.260066    1.563967
C       0.468990    0.929027    1.499046
C       1.839771    1.012295    1.476023
C       2.564676   -0.168591    1.430685
C       1.869483   -1.415721    1.539144
C       0.531400   -1.380737    1.494102
O      -0.193736    2.144477    1.554595
H       2.293841    2.144711    1.430356
H       3.630838    0.039437    1.596190
H       2.501378   -2.272129    1.495679
H       0.125342   -2.389498    1.612433
H      -1.063375    2.223825    1.549204
15
Geometry 132 of 200
N      -1.642388   -0.366664    1.537348
O      -2.159149   -1.409220    1.383759
O      -2.295793    0.618084    1.581876
C      -0.254788   -0.236200    1.594755
C       0.427597    0.972457    1.389557
C       1.855073    1.012557    1.479633
C       2.513755   -0.135328    1.519398
C       1.862273   -1.420320    1.530020
C       0.518478   -1.477729    1.516587
O      -0.210532    2.227614    1.486983
H       2.280859    2.003591    1.468521
H       3.708714   -0.493284    1.574791
H       2.277315   -2.390953    1.258369
H       0.159529   -2.454274    1.654267
H      -1.063117    1.785748    1.354505
15
Geometry 133 of 200
N      -1.646839   -0.697874    1.463349
O      -2.227495    0.076451    0.596050
O      -1.932323   -0.796816    2.627501
C      -0.214831   -0.490376    1.463111
C       0.246681    0.909705    1.603731
C       1.688100    1.258857    1.720965
C       2.571401    0.242745    1.512182
C       2.076580   -1.149994    1.377441
C       0.731444   -1.465571    1.174563
O      -0.618200    1.914854    1.511181
H       1.920365    2.209779    1.888509
H       3.576009    0.342611    1.517265
H       2.665626   -2.144118    1.204671
H       0.345095   -2.487964    0.956184
H      -1.485671    1.426487    0.990576
15
Geometry 134 of 200
N      -1.641548   -0.374658    1.451834
O      -2.209205   -1.460050    1.335162
O      -2.319339    0.726396    1.475507
C      -0.236084   -0.298965    1.652829
C       0.388250    1.001800    1.521258
C       1.878717    1.020241    1.337403
C       2.597370   -0.159046    1.317296
C       1.923500   -1.451802    1.632990
C       0.488293   -1.438035    1.708501
O      -0.229237    2.179418    1.657805
H       2.401900    2.079095    1.147994
H       3.641397   -0.116977    1.061201
H       2.484990   -2.463693    1.519108
H       0.088311   -2.425440    1.764296
H      -1.266427    1.913561    1.384315
15
Geometry 135 of 200
N      -1.592188   -0.645996    1.447670
O      -2.248742    0.168907    0.626998
O      -1.918191   -0.879200    2.589725
C      -0.133879   -0.462267    1.405334
C       0.213254    0.919780    1.558883
C       1.614805    1.235459    1.623355
C       2.534849    0.223749    1.502779
C       2.048520   -1.172483    1.435837
C       0.745663   -1.501560    1.296609
O      -0.608477    1.868877    1.551933
H       1.911563    2.318336    1.795687
H       3.667409    0.503586    1.454998
H       2.859395   -2.091591    1.311179
H       0.348477   -2.504291    0.920304
H      -1.595769    1.596156    1.057121
15
Geometry 136 of 200
N      -1.668958   -0.406499    1.484388
O      -2.152001   -1.441715    1.448509
O      -2.379526    0.669306    1.521654
C      -0.168391   -0.246058    1.463712
C       0.399559    1.006059    1.484650
C       1.821814    0.926618    1.446286
C       2.593314   -0.141766    1.471836
C       1.865872   -1.438752    1.538714
C       0.529495   -1.405283    1.551703
O      -0.173708    2.214810    1.550358
H       2.305838    1.949483    1.575110
H       3.612937   -0.273637    1.263150
H       2.419275   -2.292041    1.639350
H      -0.188255   -2.421270    1.908892
H      -1.201514    2.113897    1.545129
15
Geometry 137 of 200
N      -1.626649   -0.347152    1.497619
O      -2.180872   -1.428347    1.445851
O      -2.300512    0.661134    1.580862
C      -0.164929   -0.244673    1.564934
C       0.392687    0.953962    1.500418
C       1.837379    1.017995    1.569366
C       2.535637   -0.148353    1.515361
C       1.822169   -1.427477    1.434449
C       0.519998   -1.485379    1.492584
O      -0.222942    2.188250    1.405766
H       2.374616    1.959364    1.456241
H       3.704307   -0.209244    1.609777
H       2.551809   -2.336439    1.561028
H       0.067221   -2.443096    1.612815
H      -1.182979    2.012189    1.424426
15
Geometry 138 of 200
N      -1.590503   -0.672209    1.377818
O      -2.233321    0.126199    0.622651
O      -1.963524   -0.810722    2.645813
C      -0.155859   -0.504302    1.329065
C       0.263259    0.916425    1.595249
C       1.611663    1.204239    1.663041
C       2.558334    0.226785    1.517359
C       2.075513   -1.069583    1.367454
C       0.685096   -1.480498    1.312795
O      -0.591420    1.851118    1.555646
H       1.827013    2.255501    1.870901
H       3.690122    0.337782    1.351362
H       2.793806   -1.950084    1.283857
H       0.327069   -2.447034    1.264548
H      -1.387138    1.343156    1.321059
15
Geometry 139 of 200
N      -2.169455   -0.248371    1.480617
O      -2.602944   -1.347646    1.506536
O      -2.910231    0.813545    1.504882
C      -0.727874   -0.175321    1.486187
C      -0.077831    1.103586    1.520545
C       1.282364    1.124334    1.536075
C       2.070321   -0.090004    1.471172
C       1.361731   -1.390042    1.446166
C       0.002120   -1.402477    1.521528
O      -0.762485    2.279470    1.441589
H       1.737560    2.062281    1.729852
H       3.123395    0.006890    1.719485
H       1.922078   -2.428016    1.291962
H      -0.672049   -2.375574    1.451431
H      -1.664818    2.082399    1.349482
15
Geometry 140 of 200
N      -1.651447   -0.335649    1.506958
O      -2.153700   -1.471312    1.471747
O      -2.291891    0.684445    1.492048
C      -0.223848   -0.277914    1.482071
C       0.437860    0.962706    1.532514
C       1.775307    0.954598    1.393067
C       2.490313   -0.152026    1.483712
C       1.906104   -1.449498    1.548884
C       0.549468   -1.491582    1.547595
O      -0.189715    2.262919    1.550870
H       2.025522    2.044430    1.342801
H       3.454437   -0.048085    1.752328
H       2.591345   -2.299358    1.317963
H      -0.157564   -2.310613    1.456859
H      -0.985472    2.030270    1.481059
15
Geometry 141 of 200
N      -1.586377   -0.631744    1.430194
O      -2.201449    0.128411    0.629435
O      -1.968435   -0.758454    2.709490
C      -0.162506   -0.470900    1.443114
C       0.230834    0.872482    1.458296
C       1.609198    1.180112    1.648893
C       2.510367    0.208028    1.643030
C       2.088643   -1.154337    1.364125
C       0.828825   -1.497927    1.107092
O      -0.668901    1.860438    1.556891
H       1.845977    2.219285    1.830203
H       3.532742    0.471721    1.572343
H       2.872838   -1.906383    1.264093
H       0.385106   -2.317298    0.972364
H      -1.560699    1.394964    1.065439
15
Geometry 142 of 200
N      -2.142670   -0.317336    1.740972
O      -2.648379   -0.210644    0.571537
O      -2.687530    0.333655    2.672363
C      -0.750273   -0.285884    1.778241
C      -0.165586    0.978439    1.532933
C       1.257414    1.064694    1.486239
C       1.979835   -0.111361    1.610408
C       1.375383   -1.363428    1.643897
C      -0.023727   -1.446791    1.617762
O      -0.841179    2.002179    1.129710
H       1.629444    2.091514    1.516992
H       3.088405   -0.021422    1.532257
H       2.057034   -2.139225    1.343222
H      -0.452096   -2.389209    1.308340
H      -1.764295    1.752889    0.974737
15
Geometry 143 of 200
N      -1.602347   -0.736657    1.437136
O      -2.214097    0.172524    0.650636
O      -1.939693   -0.749050    2.699977
C      -0.144802   -0.501191    1.353478
C       0.216680    0.872854    1.558342
C       1.634944    1.186551    1.749105
C       2.509611    0.211596    1.534720
C       2.075271   -1.113434    1.342689
C       0.762963   -1.424119    1.150424
O      -0.655826    1.870608    1.470486
H       2.046284    2.157521    1.794797
H       3.561047    0.423582    2.106918
H       2.937926   -2.004122    1.201017
H       0.384461   -2.496338    1.209994
H      -1.422583    1.242229    1.075310
15
Geometry 144 of 200
N      -1.689662   -0.350021    1.520587
O      -2.211374   -1.472749    1.520877
O      -2.261199    0.695203    1.514738
C      -0.212785   -0.213120    1.422640
C       0.405569    0.957397    1.547322
C       1.808770    1.022739    1.504579
C       2.598140   -0.174225    1.555716
C       1.909717   -1.450729    1.453219
C       0.517308   -1.449530    1.489835
O      -0.233702    2.207088    1.487132
H       2.286264    1.912003    1.370322
H       3.676994   -0.242699    1.596942
H       2.626701   -2.452169    1.548695
H       0.062917   -2.496350    1.455212
H      -1.324094    1.908093    1.222662
15
Geometry 145 of 200
N      -2.172570   -0.298208    1.622313
O      -2.651892    0.122479    0.487194
O      -2.535193    0.263009    2.725685
C      -0.694079   -0.270323    1.728905
C      -0.128308    1.013416    1.463146
C       1.309357    1.034936    1.548516
C       1.961714   -0.110644    1.633582
C       1.433869   -1.349672    1.676214
C       0.043670   -1.410942    1.697122
O      -0.912782    2.012158    1.097094
H       1.763493    2.041104    1.325098
H       3.017797   -0.130298    1.511864
H       1.973830   -2.288363    1.494016
H      -0.630483   -2.283721    1.555561
H      -1.760714    1.583281    0.892220
15
Geometry 146 of 200
N      -1.661123   -0.616753    1.396829
O      -2.289324    0.053962    0.595429
O      -2.018991   -0.816605    2.646991
C      -0.181193   -0.393277    1.402800
C       0.258381    0.876544    1.497663
C       1.666009    1.234539    1.622896
C       2.585004    0.191968    1.603437
C       2.136584   -1.123496    1.337806
C       0.779454   -1.467210    1.290004
O      -0.576223    1.849554    1.602438
H       1.818701    2.283448    1.883230
H       3.681563    0.466100    1.349611
H       2.751561   -1.952014    0.965739
H       0.481113   -2.534074    1.321762
H      -1.526238    1.502604    1.398376
15
Geometry 147 of 200
N      -1.652909   -0.698921    1.410861
O      -2.274188    0.237752    0.701237
O      -1.924410   -0.772420    2.669189
C      -0.122931   -0.512509    1.368843
C       0.235960    0.919499    1.512827
C       1.627146    1.269281    1.664745
C       2.537897    0.177623    1.620736
C       2.145720   -1.114625    1.342542
C       0.754474   -1.481680    1.184684
O      -0.633730    1.755571    1.454042
H       1.931773    2.240933    2.181655
H       3.507981    0.321631    1.902265
H       2.854412   -1.792515    1.301338
H       0.504368   -2.526786    1.118157
H      -1.723725    1.330281    1.154627
15
Geometry 148 of 200
N      -1.709308   -0.344564    1.525850
O      -2.136610   -1.492327    1.534903
O      -2.359523    0.694625    1.514332
C      -0.268686   -0.226163    1.414748
C       0.458773    0.981663    1.374543
C       1.862975    1.010680    1.552749
C       2.524465   -0.188993    1.559835
C       1.923554   -1.458510    1.512932
C       0.520632   -1.395906    1.493850
O      -0.172041    2.159043    1.510898
H       2.177371    1.843810    1.576405
H       3.682854    0.061308    1.459131
H       2.389060   -2.356846    1.346429
H       0.068792   -2.323063    1.249914
H      -1.200408    2.059678    1.553242
15
Geometry 149 of 200
N      -2.165390   -0.254896    1.653950
O      -2.638686   -1.147554    1.014386
O      -2.797280    0.695371    2.089353
C      -0.725176   -0.181105    1.694377
C      -0.090084    1.042550    1.450220
C       1.300973    1.054237    1.520660
C       2.024973   -0.088812    1.532522
C       1.331892   -1.359051    1.501304
C      -0.010945   -1.388143    1.622691
O      -0.770131    2.206466    1.279636
H       1.781865    2.077378    1.504604
H       3.133113   -0.089542    1.529630
H       1.839784   -2.397544    1.418182
H      -0.540193   -2.327275    1.469720
H      -1.719830    2.041186    1.189201
15
Geometry 150 of 200
N      -1.674914   -0.381236    1.464731
O      -2.145144   -1.424407    1.511660
O      -2.329148    0.668668    1.492568
C      -0.163705   -0.283163    1.501902
C       0.432872    1.012962    1.492405
C       1.874312    1.001409    1.548026
C       2.541767   -0.196190    1.450735
C       1.853828   -1.360511    1.489534
C       0.466005   -1.433059    1.513125
O      -0.217633    2.168812    1.521634
H       2.168522    1.928482    1.447620
H       3.705319   -0.206711    1.507572
H       2.303413   -2.391410    1.519917
H       0.132909   -2.432369    1.792647
H      -1.085654    1.825209    1.388327
15
Geometry 151 of 200
N      -1.627591   -0.346984    1.508609
O      -2.081645   -1.435011    1.497916
O      -2.293180    0.709502    1.398900
C      -0.191269   -0.264941    1.569515
C       0.413953    0.970286    1.460921
C       1.750819    1.023822    1.483742
C       2.491560   -0.174931    1.419546
C       1.858367   -1.426645    1.521695
C       0.491518   -1.489562    1.565582
O      -0.202401    2.165865    1.604445
H       2.166639    2.004082    1.462749
H       3.598859   -0.200327    1.218811
H       2.430378   -2.407539    1.548064
H      -0.003077   -2.386621    1.525640
H      -1.130365    2.029882    1.438887
15
Geometry 152 of 200
N      -1.618434   -0.612286    1.412564
O      -2.318322    0.153415    0.595372
O      -1.822557   -0.828963    2.628084
C      -0.218524   -0.512951    1.345139
C       0.225491    0.894767    1.576099
C       1.680699    1.185859    1.621823
C       2.552615    0.185687    1.557816
C       2.107695   -1.125341    1.410566
C       0.720520   -1.448782    1.260501
O      -0.643393    1.859510    1.555368
H       1.835101    2.283520    1.927900
H       3.619836    0.405039    1.577157
H       2.879096   -1.805280    1.564286
H       0.449173   -2.517756    1.189942
H      -1.560605    1.440045    1.201762
15
Geometry 153 of 200
N      -1.656133   -0.346072    1.437345
O      -2.237958   -1.452509    1.523798
O      -2.296454    0.641716    1.488517
C      -0.217467   -0.266056    1.413653
C       0.411589    0.941857    1.482491
C       1.799935    1.019940    1.526063
C       2.535664   -0.110212    1.433829
C       1.909598   -1.364031    1.530475
C       0.538607   -1.446338    1.559017
O      -0.140312    2.157300    1.573458
H       2.253872    1.947979    1.343810
H       3.715443   -0.457423    1.339045
H       2.275069   -2.401192    1.700988
H      -0.065686   -2.409958    1.751589
H      -1.165092    2.192149    1.601237
15
Geometry 154 of 200
N      -1.623787   -0.375787    1.545837
O      -2.196165   -1.408774    1.579458
O      -2.349555    0.681815    1.369693
C      -0.204466   -0.274632    1.522567
C       0.391463    1.014265    1.570941
C       1.862484    0.998331    1.540683
C       2.572721   -0.186111    1.500395
C       1.914109   -1.392243    1.435493
C       0.492055   -1.517146    1.446663
O      -0.193582    2.182190    1.506541
H       2.117666    2.004089    1.522994
H       3.676353    0.047239    1.409382
H       2.445930   -2.257954    1.471344
H       0.002474   -2.551450    1.528392
H      -1.238621    1.969185    1.437716
15
Geometry 155 of 200
N      -1.573183   -0.681310    1.315592
O      -2.348785    0.185916    0.667163
O      -1.811160   -0.800287    2.665054
C      -0.194791   -0.397711    1.364273
C       0.255649    0.895719    1.497585
C       1.610623    1.133823    1.714833
C       2.535965    0.189688    1.631072
C       2.102009   -1.135968    1.277651
C       0.723731   -1.473794    1.347721
O      -0.659562    1.834725    1.487206
H       1.878840    2.299651    1.951121
H       3.627230    0.358899    1.766016
H       2.993834   -1.739331    1.295197
H       0.445814   -2.518577    1.167431
H      -1.375922    1.451717    1.146345
15
Geometry 156 of 200
N      -1.551520   -0.633670    1.359940
O      -2.270802    0.088302    0.596073
O      -1.881612   -0.826923    2.624182
C      -0.210244   -0.501039    1.457769
C       0.231833    0.873234    1.588569
C       1.577410    1.259414    1.658381
C       2.528041    0.223683    1.502137
C       2.107775   -1.164334    1.389573
C       0.672346   -1.411769    1.268606
O      -0.562902    1.858422    1.550985
H       2.058663    2.237850    1.812472
H       3.600622    0.366634    1.626329
H       2.849939   -1.949500    1.276981
H       0.071893   -2.506377    1.125501
H      -1.469619    1.708588    1.286368
15
Geometry 157 of 200
N      -2.229413   -0.277495    1.763819
O      -2.760021   -0.696057    0.704157
O      -2.690080    0.665092    2.481708
C      -0.776956   -0.249540    1.781265
C      -0.110119    1.012732    1.578453
C       1.298192    1.056615    1.566914
C       2.041415   -0.067911    1.560128
C       1.355919   -1.336765    1.601000
C      -0.022762   -1.452764    1.590810
O      -0.806123    2.032581    1.155240
H       1.886527    2.090273    1.576883
H       3.191823   -0.095293    1.426569
H       2.022887   -2.157961    1.464660
H      -0.496364   -2.335226    1.145545
H      -1.876045    1.857839    1.089446
15
Geometry 158 of 200
N      -2.139420   -0.239496    1.798862
O      -2.713581   -0.903171    0.962594
O      -2.785460    0.713134    2.242075
C      -0.733158   -0.208230    1.784195
C      -0.105952    1.006019    1.579670
C       1.343155    1.079676    1.480845
C       2.039944   -0.078920    1.607977
C       1.433374   -1.308934    1.545656
C      -0.016268   -1.341287    1.545007
O      -0.816646    2.053332    1.137638
H       1.773282    2.127606    1.753838
H       3.227909    0.005754    1.665276
H       1.985707   -2.329473    1.269609
H      -0.641215   -2.219035    1.140120
H      -1.841209    1.738481    1.014256
15
Geometry 159 of 200
N      -2.150894   -0.216453    1.782148
O      -2.751467   -1.165970    1.169026
O      -2.747879    0.814438    2.117950
C      -0.718926   -0.233771    1.745072
C      -0.158241    1.067802    1.402441
C       1.266742    1.084407    1.521798
C       2.049152   -0.122746    1.627518
C       1.388772   -1.335224    1.619029
C      -0.010104   -1.321738    1.613062
O      -0.791812    2.178325    1.238489
H       1.882156    2.065090    1.428532
H       3.134258   -0.005733    1.472037
H       1.873345   -2.421158    1.353811
H      -0.504952   -2.271497    1.362126
H      -1.749043    1.853275    1.168948
15
Geometry 160 of 200
N      -1.685395   -0.346578    1.512167
O      -2.173374   -1.459817    1.561829
O      -2.311090    0.669335    1.435998
C      -0.161475   -0.299504    1.502360
C       0.444098    1.020834    1.564840
C       1.835673    1.022853    1.567393
C       2.515505   -0.182963    1.455991
C       1.940279   -1.478710    1.524698
C       0.487328   -1.448215    1.425493
O      -0.236201    2.248956    1.477334
H       2.372721    1.905293    1.475706
H       3.527340   -0.207902    1.368152
H       2.513557   -2.524480    1.550496
H       0.026532   -2.383570    1.329871
H      -1.314266    2.040173    1.548878
15
Geometry 161 of 200
N      -1.579951   -0.677745    1.399122
O      -2.198018    0.076375    0.541646
O      -1.859324   -0.769807    2.711651
C      -0.196025   -0.452033    1.440662
C       0.219443    0.898045    1.613877
C       1.644913    1.159353    1.735320
C       2.433660    0.234608    1.519154
C       2.067733   -1.136737    1.340306
C       0.651419   -1.431923    1.213837
O      -0.591597    1.851880    1.515768
H       2.060988    2.288557    1.796854
H       3.479224    0.491300    1.639277
H       2.917759   -1.732319    1.213718
H       0.305760   -2.528841    0.886799
H      -1.410608    1.529525    1.159417
15
Geometry 162 of 200
N      -1.592000   -0.655562    1.376250
O      -2.275405    0.190539    0.577161
O      -1.879488   -0.772651    2.651125
C      -0.135858   -0.515928    1.395166
C       0.254595    0.941984    1.619013
C       1.668450    1.232724    1.655688
C       2.487869    0.253314    1.506743
C       2.109571   -1.165778    1.361822
C       0.711285   -1.516105    1.282978
O      -0.682881    1.784854    1.559310
H       1.903908    2.287643    1.800870
H       3.669792    0.336330    1.636737
H       2.738798   -2.038656    1.427520
H       0.534027   -2.515331    1.159757
H      -1.524202    1.436840    1.267332
15
Geometry 163 of 200
N      -1.600562   -0.664539    1.396166
O      -2.250437    0.060848    0.494981
O      -1.809549   -0.760106    2.715701
C      -0.151158   -0.398852    1.345313
C       0.271404    0.863850    1.612189
C       1.613996    1.257818    1.625421
C       2.424145    0.167918    1.568310
C       2.027564   -1.187430    1.398002
C       0.739053   -1.424169    1.221194
O      -0.634558    1.854069    1.625324
H       1.941008    2.229729    1.653793
H       3.553682    0.454579    1.600673
H       2.759093   -1.984891    1.397726
H       0.230261   -2.404299    0.981773
H      -1.311016    1.561950    1.277571
15
Geometry 164 of 200
N      -1.589462   -0.605107    1.402038
O      -2.227649    0.125630    0.641048
O      -1.988967   -0.744855    2.656643
C      -0.170798   -0.468127    1.429245
C       0.303079    0.878059    1.557350
C       1.621235    1.208990    1.661969
C       2.530861    0.181279    1.596033
C       2.134806   -1.109577    1.307580
C       0.774995   -1.491060    1.244370
O      -0.688213    1.792018    1.549022
H       1.891803    2.413901    1.742459
H       3.478316    0.395356    1.574050
H       2.858332   -1.945732    1.011131
H       0.475618   -2.501177    1.003848
H      -1.559946    1.293833    0.928927
15
Geometry 165 of 200
N      -1.627355   -0.611482    1.447008
O      -2.245676    0.113125    0.606287
O      -1.899605   -0.699756    2.695002
C      -0.117396   -0.471987    1.347428
C       0.294770    0.906091    1.555954
C       1.606641    1.220545    1.675430
C       2.520299    0.193873    1.592704
C       2.088973   -1.091540    1.391571
C       0.746950   -1.570184    1.076143
O      -0.698298    1.807343    1.557637
H       1.732473    2.271722    1.805758
H       3.586466    0.309131    1.826414
H       2.912298   -1.976382    1.535574
H       0.528680   -2.530804    0.988777
H      -1.368659    1.185598    1.194666
15
Geometry 166 of 200
N      -1.656007   -0.337300    1.518253
O      -2.130350   -1.456753    1.506499
O      -2.398878    0.708466    1.498577
C      -0.170373   -0.256325    1.520343
C       0.433370    0.944751    1.573602
C       1.854551    0.965199    1.468481
C       2.561047   -0.132256    1.538620
C       1.842185   -1.352898    1.536860
C       0.509994   -1.469560    1.426990
O      -0.196443    2.136681    1.460806
H       2.423135    1.861603    1.399739
H       3.617439   -0.114921    1.473626
H       2.416977   -2.346980    1.329841
H      -0.157603   -2.405205    1.308088
H      -1.055015    1.928265    1.486583
15
Geometry 167 of 200
N      -2.181972   -0.278511    1.678379
O      -2.760282    0.271410    0.672461
O      -2.555499    0.172789    2.790967
C      -0.716089   -0.282220    1.708536
C      -0.128533    0.981985    1.409068
C       1.320886    1.044973    1.355381
C       2.043799   -0.104406    1.575566
C       1.382896   -1.356556    1.630824
C      -0.006067   -1.473405    1.736850
O      -0.901633    1.983930    1.079404
H       1.636756    1.922629    1.186155
H       3.195506   -0.070658    1.606263
H       2.178607   -2.122521    1.510680
H      -0.578748   -2.326443    1.579664
H      -1.986427    1.603386    0.957953
15
Geometry 168 of 200
N      -1.578528   -0.620889    1.368524
O      -2.209647    0.240526    0.636840
O      -1.881851   -0.738377    2.662844
C      -0.166547   -0.514615    1.384386
C       0.231044    0.838362    1.509760
C       1.562552    1.151052    1.623131
C       2.503952    0.178360    1.581978
C       2.142537   -1.123617    1.335771
C       0.779581   -1.459266    1.285442
O      -0.728513    1.774230    1.567104
H       1.882834    2.283013    1.771227
H       3.616825    0.358771    1.741990
H       3.007846   -1.844345    1.288389
H       0.567975   -2.378355    1.236298
H      -1.683157    1.312288    1.257465
15
Geometry 169 of 200
N      -1.700933   -0.289029    1.501121
O      -2.086444   -1.487974    1.442096
O      -2.298190    0.626007    1.469710
C      -0.186373   -0.230469    1.539787
C       0.393463    1.017532    1.492144
C       1.868487    0.986623    1.484288
C       2.536151   -0.230873    1.418819
C       1.819436   -1.386541    1.463958
C       0.499274   -1.463982    1.672883
O      -0.211445    2.190132    1.556804
H       2.284209    2.011809    1.333388
H       3.650146   -0.082692    1.568040
H       2.244275   -2.325429    1.387292
H      -0.077494   -2.511451    1.536266
H      -1.059124    2.154353    1.394514
15
Geometry 170 of 200
N      -2.201398   -0.295011    1.632438
O      -2.817685    0.072434    0.556375
O      -2.499421    0.218227    2.827370
C      -0.716321   -0.319163    1.607854
C      -0.155991    0.974492    1.421028
C       1.296809    1.071335    1.402532
C       1.966331   -0.026833    1.494906
C       1.363605   -1.332137    1.508762
C      -0.050994   -1.446254    1.646412
O      -0.900461    1.997049    1.126644
H       1.645971    2.187344    1.443193
H       3.026599   -0.142840    1.655497
H       2.065396   -2.195555    1.809749
H      -0.459191   -2.549985    1.332925
H      -1.631269    1.621923    1.099447
15
Geometry 171 of 200
N      -1.626736   -0.358620    1.564341
O      -2.221800   -1.424629    1.394876
O      -2.299865    0.699418    1.549680
C      -0.208521   -0.260830    1.487917
C       0.398474    1.027574    1.443962
C       1.823534    0.949151    1.458164
C       2.596195   -0.125902    1.510220
C       1.913425   -1.442464    1.491959
C       0.506080   -1.484066    1.599452
O      -0.229086    2.155428    1.483341
H       2.066263    2.060056    1.441470
H       3.715335   -0.129797    1.667968
H       2.469184   -2.335927    1.449337
H       0.164264   -2.362348    1.480943
H      -1.196164    1.893555    1.783547
15
Geometry 172 of 200
N      -2.187143   -0.230533    1.749454
O      -2.786588   -1.049705    1.024584
O      -2.773385    0.755711    2.183874
C      -0.768488   -0.163626    1.757341
C      -0.112005    1.097044    1.502428
C       1.306739    1.111535    1.539280
C       2.060552   -0.129860    1.546904
C       1.371122   -1.334033    1.503355
C       0.006113   -1.351809    1.635239
O      -0.852428    2.193189    1.128396
H       1.752059    2.177524    1.591827
H       3.229901    0.008976    1.644841
H       2.018117   -2.338408    1.496033
H      -0.535841   -2.429122    1.310579
H      -1.685057    1.778135    0.939933
15
Geometry 173 of 200
N      -1.658595   -0.322787    1.490653
O      -2.189698   -1.439956    1.482416
O      -2.264135    0.731932    1.611835
C      -0.138199   -0.302373    1.397489
C       0.428706    0.935452    1.418650
C       1.787366    1.020943    1.514093
C       2.504155   -0.139780    1.578538
C       1.877737   -1.385971    1.520403
C       0.513796   -1.505462    1.460164
O      -0.224469    2.119782    1.512898
H       2.345033    2.009635    1.190668
H       3.626515    0.012860    1.624723
H       2.409800   -2.261406    1.690793
H       0.063321   -2.506589    1.532625
H      -1.271897    2.076271    1.216548
15
Geometry 174 of 200
N      -2.215668   -0.344871    1.752764
O      -2.719709   -0.052305    0.599417
O      -2.635577    0.356730    2.784626
C      -0.797310   -0.259111    1.810815
C      -0.133008    1.040990    1.555060
C       1.280941    1.105347    1.447276
C       2.039438   -0.069908    1.532679
C       1.418286   -1.275835    1.604118
C      -0.017899   -1.396949    1.693823
O      -0.912667    1.905545    1.081097
H       1.669057    2.064862    1.362044
H       3.064858   -0.075803    1.319060
H       2.065030   -2.142806    1.585853
H      -0.360682   -2.453437    1.579046
H      -1.875107    1.515081    0.855510
15
Geometry 175 of 200
N      -1.661318   -0.374993    1.544066
O      -2.102670   -1.415530    1.414869
O      -2.279829    0.667100    1.523691
C      -0.265550   -0.220642    1.395844
C       0.371740    0.956742    1.525988
C       1.808303    0.978910    1.394514
C       2.539958   -0.130414    1.460405
C       1.865014   -1.395213    1.564485
C       0.504799   -1.501482    1.585147
O      -0.173730    2.166957    1.561094
H       2.301423    2.009051    1.416773
H       3.553911   -0.112284    1.520953
H       2.392800   -2.363391    1.599454
H      -0.160894   -2.481810    1.798948
H      -0.990414    2.077749    1.506470
15
Geometry 176 of 200
N      -1.543199   -0.668072    1.474779
O      -2.107309    0.128864    0.606479
O      -1.821899   -0.674011    2.697932
C      -0.205661   -0.415468    1.318199
C       0.160329    0.919525    1.506948
C       1.608120    1.175568    1.719619
C       2.448235    0.171753    1.634061
C       2.042946   -1.206018    1.304913
C       0.775951   -1.450679    1.207633
O      -0.732263    1.794617    1.511673
H       1.684575    2.051107    2.222849
H       3.569319    0.458214    1.692158
H       2.825150   -1.898001    0.921579
H       0.400080   -2.543671    0.932696
H      -1.574573    1.352593    1.197950
15
Geometry 177 of 200
N      -1.633032   -0.666618    1.414739
O      -2.169914    0.201754    0.622326
O      -1.892506   -0.743305    2.726727
C      -0.238531   -0.472604    1.400770
C       0.239205    0.832251    1.514359
C       1.594022    1.192136    1.720077
C       2.444499    0.221375    1.634472
C       2.142434   -1.117768    1.327930
C       0.802980   -1.483074    1.197434
O      -0.639443    1.775448    1.489263
H       1.834127    2.203283    1.785189
H       3.469757    0.442778    1.477941
H       2.981182   -1.743915    1.084699
H       0.235327   -2.428084    0.871150
H      -1.493270    1.400173    1.070627
15
Geometry 178 of 200
N      -2.158964   -0.265332    1.758465
O      -2.637178   -1.013946    0.876875
O      -2.680480    0.664737    2.180085
C      -0.784907   -0.209886    1.786303
C      -0.074638    1.062182    1.453628
C       1.236516    1.121717    1.410664
C       2.014587   -0.117103    1.470164
C       1.388847   -1.356638    1.526129
C      -0.012228   -1.373130    1.675920
O      -0.808420    2.181485    1.141516
H       1.728144    2.184543    1.544760
H       3.125043   -0.009738    1.412940
H       1.867244   -2.339268    1.581303
H      -0.476365   -2.361893    1.595927
H      -1.694739    1.874195    1.092414
15
Geometry 179 of 200
N      -1.678102   -0.405061    1.588272
O      -2.175913   -1.524387    1.544178
O      -2.343653    0.697118    1.473740
C      -0.239288   -0.184331    1.476149
C       0.421237    1.016691    1.526116
C       1.869406    0.990371    1.642926
C       2.529377   -0.197721    1.458623
C       1.858872   -1.409509    1.484634
C       0.549097   -1.422686    1.354959
O      -0.154898    2.193377    1.420406
H       2.330902    1.986284    1.745128
H       3.636608   -0.097892    1.545355
H       2.485203   -2.382110    1.819956
H      -0.088644   -2.435796    1.498181
H      -1.142494    2.080722    1.319160
15
Geometry 180 of 200
N      -1.588696   -0.393884    1.534808
O      -2.115410   -1.501627    1.340450
O      -2.303929    0.689041    1.588258
C      -0.168317   -0.265101    1.659236
C       0.420907    1.035659    1.517402
C       1.796507    0.958861    1.417690
C       2.572329   -0.173603    1.475516
C       1.792214   -1.452713    1.504846
C       0.488613   -1.433427    1.555452
O      -0.236373    2.254006    1.393822
H       2.349180    1.954078    1.757833
H       3.500531   -0.196978    1.661676
H       2.164667   -2.451048    1.443131
H      -0.129069   -2.179515    1.486212
H      -1.060791    2.110289    1.883371
15
Geometry 181 of 200
N      -1.590572   -0.635823    1.426999
O      -2.243444    0.099288    0.602318
O      -1.909644   -0.785367    2.649229
C      -0.185392   -0.437871    1.448056
C       0.261948    0.955362    1.602320
C       1.622327    1.215630    1.645920
C       2.495599    0.156134    1.549138
C       2.071102   -1.143192    1.366881
C       0.771006   -1.480033    1.186428
O      -0.649093    1.822737    1.514418
H       1.952239    2.358540    1.999024
H       3.732304    0.279117    1.668349
H       2.896835   -1.874349    1.332892
H       0.364444   -2.350136    0.954366
H      -1.536545    1.387368    1.206697
15
Geometry 182 of 200
N      -1.683959   -0.348733    1.495335
O      -2.206315   -1.474240    1.302474
O      -2.279403    0.715388    1.678650
C      -0.178751   -0.266253    1.436610
C       0.473083    0.974835    1.505553
C       1.849305    1.052287    1.341960
C       2.544131   -0.142298    1.407861
C       1.880063   -1.398718    1.686410
C       0.474856   -1.447317    1.627958
O      -0.220057    2.095597    1.515909
H       2.232512    2.189453    1.436436
H       3.636442   -0.274168    1.495765
H       2.318341   -2.282881    1.782584
H       0.087193   -2.473206    1.392532
H      -1.144216    1.940363    1.574029
15
Geometry 183 of 200
N      -1.614840   -0.282341    1.543335
O      -2.130322   -1.493882    1.395190
O      -2.315970    0.673904    1.594065
C      -0.240791   -0.278660    1.547969
C       0.422549    1.025895    1.434320
C       1.806172    1.000176    1.489611
C       2.516584   -0.181433    1.531878
C       1.861638   -1.460040    1.550725
C       0.533462   -1.417942    1.491077
O      -0.209158    2.175624    1.448624
H       2.273421    1.744510    1.413569
H       3.561661   -0.272522    1.433420
H       2.428397   -2.281420    1.468374
H       0.106077   -2.438328    1.384955
H      -1.232997    2.088661    1.602751
15
Geometry 184 of 200
N      -1.625718   -0.358030    1.480508
O      -2.183661   -1.420046    1.403577
O      -2.292666    0.717791    1.576790
C      -0.233065   -0.302074    1.612626
C       0.426585    0.971746    1.504140
C       1.821342    1.026579    1.510483
C       2.535437   -0.109499    1.495641
C       1.875416   -1.420289    1.492234
C       0.531897   -1.566421    1.525957
O      -0.214525    2.172462    1.424642
H       2.347585    2.101416    1.551987
H       3.722330   -0.108033    1.298134
H       2.530941   -2.250967    1.410757
H      -0.225627   -2.402640    1.711018
H      -1.263553    1.879866    1.591151
15
Geometry 185 of 200
N      -1.702989   -0.368022    1.453030
O      -2.177209   -1.486510    1.571145
O      -2.278666    0.654107    1.504868
C      -0.254261   -0.316806    1.516038
C       0.495176    1.039764    1.496655
C       1.865820    1.082757    1.540326
C       2.516577   -0.181758    1.561450
C       1.850242   -1.393550    1.474359
C       0.491198   -1.481521    1.429460
O      -0.182663    2.212317    1.497056
H       2.446403    1.946088    1.320827
H       3.595641   -0.037277    1.510428
H       2.309267   -2.351805    1.461316
H      -0.072310   -2.441329    1.278027
H      -1.023970    1.843292    1.202717
15
Geometry 186 of 200
N      -1.585565   -0.645350    1.370756
O      -2.284531    0.082649    0.609652
O      -1.815843   -0.772406    2.727897
C      -0.154016   -0.458620    1.292729
C       0.289990    0.906651    1.437491
C       1.593071    1.209548    1.665440
C       2.468856    0.180611    1.630288
C       2.054064   -1.191076    1.366105
C       0.745850   -1.414521    1.195001
O      -0.652338    1.902375    1.584100
H       1.993795    2.162375    1.960325
H       3.487114    0.208126    2.053303
H       2.771251   -1.862447    1.484848
H       0.395026   -2.467282    1.109253
H      -1.618157    1.256832    1.362375
15
Geometry 187 of 200
N      -1.640539   -0.680753    1.503840
O      -2.162232    0.116666    0.574759
O      -1.966302   -0.750589    2.697264
C      -0.208393   -0.501871    1.431765
C       0.217613    0.938769    1.551861
C       1.677495    1.246291    1.741476
C       2.562208    0.242412    1.584458
C       2.068759   -1.116203    1.225925
C       0.696891   -1.456207    1.198367
O      -0.614345    1.773897    1.463803
H       2.050619    2.143151    2.283252
H       3.636545    0.451391    1.762418
H       2.836975   -1.829394    1.180380
H       0.309917   -2.541871    0.958506
H      -1.549733    1.180514    1.126716
15
Geometry 188 of 200
N      -1.608085   -0.660887    1.455319
O      -2.267198    0.191033    0.577259
O      -1.930210   -0.765049    2.663198
C      -0.168855   -0.524221    1.450021
C       0.208954    0.913192    1.636116
C       1.572199    1.159696    1.692045
C       2.561307    0.212944    1.566904
C       2.148006   -1.123430    1.274598
C       0.822015   -1.504316    1.258886
O      -0.628772    1.830715    1.477522
H       1.828733    2.305019    1.871206
H       3.410947    0.493267    1.586686
H       2.789586   -1.991714    1.182923
H       0.337708   -2.486426    0.897724
H      -1.586631    1.523531    1.038138
15
Geometry 189 of 200
N      -1.684371   -0.351749    1.419978
O      -2.208974   -1.411979    1.713991
O      -2.381349    0.689391    1.429882
C      -0.201445   -0.297090    1.388147
C       0.416292    1.051107    1.527757
C       1.856370    0.982351    1.624774
C       2.548156   -0.192534    1.568450
C       1.921971   -1.366611    1.434386
C       0.572169   -1.495017    1.386452
O      -0.181154    2.111319    1.490412
H       2.213965    2.038547    1.530239
H       3.759453   -0.057496    1.576847
H       2.525775   -2.182867    1.291462
H      -0.005909   -2.494211    1.404469
H      -1.116074    2.143906    1.422909
15
Geometry 190 of 200
N      -1.635335   -0.680891    1.436508
O      -2.273339    0.153463    0.534987
O      -1.942565   -0.858454    2.633705
C      -0.218077   -0.445777    1.464134
C       0.285415    0.910855    1.578830
C       1.683709    1.247231    1.660102
C       2.559346    0.182698    1.506028
C       2.108289   -1.145923    1.345942
C       0.786029   -1.501111    1.293047
O      -0.660602    1.890961    1.554756
H       1.995372    2.212798    1.756061
H       3.591991    0.336772    1.405337
H       2.859579   -1.855200    1.317036
H       0.336874   -2.484065    1.293038
H      -1.631675    1.566337    1.367551
15
Geometry 191 of 200
N      -1.630525   -0.687715    1.434756
O      -2.136821    0.238049    0.628814
O      -1.972286   -0.827730    2.680621
C      -0.186293   -0.498406    1.421394
C       0.271058    0.860342    1.492350
C       1.601378    1.209875    1.611418
C       2.546539    0.197802    1.561980
C       2.117957   -1.067225    1.332486
C       0.710757   -1.462318    1.250361
O      -0.660377    1.794349    1.532389
H       1.841696    2.245208    1.824193
H       3.489402    0.464272    1.808732
H       2.870737   -1.789509    1.378492
H       0.354237   -2.565391    1.076482
H      -1.400937    1.425920    1.226152
15
Geometry 192 of 200
N      -1.578862   -0.648095    1.459839
O      -2.167684    0.034205    0.555141
O      -1.924647   -0.662663    2.693460
C      -0.174907   -0.478536    1.408117
C       0.243982    0.897626    1.573114
C       1.609501    1.231339    1.729889
C       2.502282    0.168173    1.612599
C       2.110907   -1.199435    1.235391
C       0.698189   -1.400505    1.221967
O      -0.686602    1.818193    1.534845
H       1.999243    2.256968    1.940264
H       3.493592    0.428333    1.801601
H       2.863383   -1.887645    0.721145
H       0.494945   -2.357131    0.933125
H      -1.563546    1.332935    1.201056
15
Geometry 193 of 200
N      -1.696167   -0.368248    1.505725
O      -2.284741   -1.483429    1.649852
O      -2.337125    0.651661    1.409601
C      -0.189704   -0.256696    1.501819
C       0.447210    0.973738    1.533511
C       1.816702    1.074272    1.657639
C       2.546679   -0.156696    1.508571
C       1.956247   -1.388359    1.392041
C       0.502370   -1.482857    1.396820
O      -0.099560    2.185354    1.428293
H       2.117493    2.023001    1.920398
H       3.622700   -0.304792    1.616668
H       2.532159   -2.083648    1.297768
H      -0.078472   -2.396778    1.460997
H      -1.104160    1.986633    1.326628
15
Geometry 194 of 200
N      -1.627352   -0.642943    1.386145
O      -2.265840    0.165659    0.635333
O      -1.839164   -0.763536    2.645025
C      -0.151872   -0.492570    1.359044
C       0.274157    0.893014    1.496664
C       1.585647    1.240323    1.629952
C       2.515191    0.172102    1.652453
C       2.056720   -1.115007    1.367221
C       0.761784   -1.497509    1.225179
O      -0.642200    1.810637    1.571863
H       1.711057    2.332166    1.763414
H       3.501033    0.334594    1.564527
H       2.949806   -1.827732    1.323778
H       0.415144   -2.637847    1.203898
H      -1.500061    1.376258    1.298598
15
Geometry 195 of 200
N      -1.736349   -0.373530    1.570357
O      -2.106518   -1.512373    1.410961
O      -2.369565    0.668515    1.545787
C      -0.283081   -0.191839    1.484431
C       0.402661    0.954242    1.486517
C       1.870374    1.036648    1.427898
C       2.557740   -0.138977    1.480148
C       1.889143   -1.483077    1.559326
C       0.491667   -1.389388    1.533640
O      -0.101857    2.193046    1.488338
H       2.175906    2.038514    1.761513
H       3.624897   -0.148647    1.554570
H       2.495445   -2.512776    1.467316
H      -0.156480   -2.405959    1.465902
H      -1.000207    2.089313    1.468699
15
Geometry 196 of 200
N      -1.651958   -0.398167    1.482691
O      -2.175146   -1.474451    1.459235
O      -2.323702    0.687444    1.532223
C      -0.239270   -0.263791    1.473295
C       0.422740    0.999867    1.535348
C       1.802396    0.987234    1.424163
C       2.516673   -0.180049    1.504314
C       1.870683   -1.399749    1.465818
C       0.538266   -1.420433    1.556788
O      -0.135181    2.189117    1.527040
H       2.230651    1.899717    1.505740
H       3.672792    0.015154    1.491684
H       2.430211   -2.294042    1.891844
H      -0.070093   -2.215277    1.686527
H      -1.139430    1.968946    1.431140
15
Geometry 197 of 200
N      -1.577083   -0.655559    1.369564
O      -2.217965    0.151319    0.615286
O      -1.893788   -0.740782    2.640234
C      -0.182915   -0.496969    1.397876
C       0.243631    0.869824    1.624487
C       1.608324    1.252086    1.708572
C       2.508119    0.200284    1.491752
C       2.118274   -1.110477    1.342324
C       0.682237   -1.487082    1.243370
O      -0.656389    1.799632    1.532972
H       1.929392    2.322396    2.068681
H       3.700011    0.314652    1.386549
H       2.832479   -1.967006    1.511196
H       0.476583   -2.548897    1.353316
H      -1.496689    1.291264    1.184496
15
Geometry 198 of 200
N      -1.565407   -0.700863    1.409704
O      -2.283072    0.092828    0.606183
O      -1.915299   -0.745596    2.671572
C      -0.166389   -0.458798    1.319314
C       0.260405    0.965073    1.516235
C       1.625051    1.141746    1.654480
C       2.520677    0.156782    1.593501
C       2.075782   -1.093633    1.362504
C       0.731700   -1.433626    1.215451
O      -0.621553    1.862938    1.573519
H       2.071752    2.135290    1.821545
H       3.479974    0.580224    1.751566
H       2.795119   -1.902476    1.417226
H       0.473247   -2.529979    1.099308
H      -1.656122    1.322161    1.557562
15
Geometry 199 of 200
N      -1.583449   -0.682722    1.467917
O      -2.218192    0.052686    0.571414
O      -1.953636   -0.741857    2.660636
C      -0.158482   -0.428896    1.374051
C       0.242451    0.933015    1.619991
C       1.634529    1.218482    1.643324
C       2.536883    0.223251    1.579121
C       2.072371   -1.181911    1.356486
C       0.717819   -1.419250    1.182332
O      -0.626773    1.820991    1.549588
H       1.940170    2.257158    1.959117
H       3.483512    0.294775    1.539011
H       2.761217   -1.970879    1.098033
H       0.328187   -2.381424    1.031505
H      -1.407219    1.462354    1.252434
15
Geometry 200 of 200
N      -2.142097   -0.272454    1.872374
O      -2.570906   -0.478123    0.655270
O      -2.700333    0.683693    2.495046
C      -0.653921   -0.192649    1.874671
C      -0.071205    1.062052    1.527113
C       1.279179    1.106269    1.501803
C       2.038804   -0.125368    1.600921
C       1.352828   -1.311487    1.555288
C      -0.071918   -1.382877    1.637501
O      -0.809933    1.999231    1.005647
H       1.772973    2.063114    1.562688
H       3.100396   -0.276655    1.761844
H       1.899702   -2.277115    1.281992
H      -0.594931   -2.150485    1.156842
H      -1.816928    1.510492    0.947626
