15
Geometry 1 of 200
N      -1.625855   -0.641316   -0.150351
O      -2.281245    0.111686   -0.860038
O      -1.830269   -0.746834    1.130607
C      -0.227950   -0.479384   -0.056779
C       0.251477    0.834191    0.057374
C       1.635315    1.259684    0.221028
C       2.483729    0.230151    0.039145
C       2.053231   -1.139873   -0.110652
C       0.728265   -1.430570   -0.277441
O      -0.576057    1.793695    0.027371
H       1.898553    2.348518    0.395014
H       3.582175    0.427647    0.139620
H       2.758538   -1.900179   -0.333891
H       0.597875   -2.560378   -0.433991
H      -1.293277    1.272052   -0.422475
15
Geometry 2 of 200
N      -2.174253   -0.291159    0.088303
O      -2.706712   -1.340523   -0.006102
O      -2.815916    0.730326    0.067387
C      -0.717765   -0.186864    0.032477
C      -0.069128    1.111952    0.114255
C       1.296205    1.090185    0.129374
C       2.059702   -0.102327    0.080652
C       1.420483   -1.406671    0.070803
C      -0.007781   -1.445378    0.037139
O      -0.694375    2.274464    0.025081
H       1.840912    2.088035   -0.251755
H       2.979278    0.044773   -0.184384
H       1.998593   -2.275668   -0.155606
H      -0.657880   -2.336407    0.090102
H      -1.705320    2.042012   -0.109411
15
Geometry 3 of 200
N      -1.614046   -0.662056   -0.131718
O      -2.228474    0.137495   -0.890488
O      -1.840973   -0.787421    1.181898
C      -0.196212   -0.457215   -0.144363
C       0.214568    0.874769    0.115840
C       1.627231    1.233260    0.159105
C       2.497343    0.210121    0.066194
C       2.118162   -1.154261   -0.114381
C       0.704439   -1.426290   -0.273169
O      -0.617078    1.838373    0.033860
H       1.737965    2.235889    0.190249
H       3.456291    0.258483    0.205401
H       2.803376   -1.984588   -0.253706
H       0.283504   -2.502463   -0.344954
H      -1.431577    1.307377   -0.359801
15
Geometry 4 of 200
N      -1.675943   -0.364259    0.023164
O      -2.132030   -1.457740    0.033707
O      -2.372820    0.728459   -0.046284
C      -0.218920   -0.211904   -0.104979
C       0.343956    0.990856    0.046787
C       1.847045    0.923041   -0.055092
C       2.615632   -0.144271   -0.035838
C       1.904756   -1.448877    0.077578
C       0.554956   -1.430122   -0.017459
O      -0.212084    2.143428    0.060947
H       2.351225    1.977906   -0.101305
H       3.767849   -0.121965    0.066814
H       2.305549   -2.435592    0.123495
H      -0.102522   -2.263837   -0.108043
H      -1.136465    2.061138    0.060848
15
Geometry 5 of 200
N      -1.671304   -0.396099    0.010850
O      -2.223492   -1.495431    0.092114
O      -2.318829    0.688551   -0.083437
C      -0.148791   -0.208841   -0.039937
C       0.434410    0.984975    0.047411
C       1.769008    1.006608    0.025053
C       2.582206   -0.189384    0.002889
C       1.890997   -1.417014   -0.007284
C       0.488069   -1.431789   -0.112040
O      -0.152840    2.183748    0.012421
H       2.286313    2.005835   -0.111289
H       3.579607    0.059892    0.188357
H       2.443179   -2.410506    0.079540
H       0.028671   -2.374923    0.152561
H      -1.258878    2.183361    0.185099
15
Geometry 6 of 200
N      -2.189671   -0.251427    0.328406
O      -2.719720   -0.425519   -0.767894
O      -2.688152    0.591939    1.077772
C      -0.741625   -0.296306    0.350471
C      -0.152397    0.961542    0.082177
C       1.225367    1.040834   -0.011668
C       2.071884   -0.074065    0.019753
C       1.463116   -1.325356    0.029210
C      -0.012268   -1.423736    0.174227
O      -0.832020    1.964472   -0.429584
H       1.632337    2.098079    0.010278
H       3.158449   -0.045876    0.114692
H       1.909286   -2.228129   -0.167895
H      -0.408542   -2.342899   -0.217923
H      -1.771241    1.671886   -0.623780
15
Geometry 7 of 200
N      -1.621775   -0.352440   -0.048071
O      -2.145910   -1.474723   -0.003408
O      -2.382396    0.720958    0.069546
C      -0.210033   -0.257607   -0.002734
C       0.432125    0.976512   -0.062756
C       1.791879    0.953797    0.020828
C       2.567432   -0.186896    0.024255
C       1.872175   -1.420503    0.006314
C       0.514179   -1.422831   -0.000777
O      -0.207117    2.200128   -0.028495
H       2.398629    1.949616    0.104925
H       3.643279   -0.072191    0.019442
H       2.528108   -2.357840    0.020007
H       0.158100   -2.355930   -0.076410
H      -1.086435    1.819542    0.127924
15
Geometry 8 of 200
N      -1.607563   -0.306196    0.056951
O      -2.053992   -1.446986    0.038945
O      -2.419291    0.658082   -0.076552
C      -0.202274   -0.232520   -0.099844
C       0.430177    0.987911   -0.076480
C       1.786706    0.937629    0.009931
C       2.583067   -0.202070   -0.011669
C       1.866302   -1.400377   -0.023063
C       0.452978   -1.467503    0.019238
O      -0.205545    2.213555    0.064435
H       2.312461    1.818674    0.080977
H       3.708141   -0.230058    0.211007
H       2.363128   -2.258680    0.087010
H      -0.003946   -2.403906    0.210955
H      -1.206839    1.924242    0.315228
15
Geometry 9 of 200
N      -1.732547   -0.327040    0.006296
O      -2.185306   -1.448581    0.051700
O      -2.291321    0.712643   -0.095304
C      -0.229429   -0.300919   -0.008670
C       0.408249    0.915423   -0.006901
C       1.778886    1.030366    0.041830
C       2.532615   -0.135004   -0.063477
C       1.860387   -1.371760    0.016596
C       0.583272   -1.468522    0.018463
O      -0.144038    2.132223    0.044547
H       2.399662    1.957523    0.007001
H       3.715708   -0.186223   -0.103021
H       2.643131   -2.105157   -0.107397
H       0.057155   -2.429615   -0.025089
H      -1.107988    1.831750    0.164094
15
Geometry 10 of 200
N      -1.638455   -0.341035   -0.019805
O      -2.165491   -1.380042   -0.094348
O      -2.321501    0.656350    0.026341
C      -0.233056   -0.301166    0.071951
C       0.418232    1.022854   -0.019897
C       1.786855    0.962482   -0.086668
C       2.548372   -0.164494   -0.054024
C       1.874219   -1.409365    0.026651
C       0.560404   -1.476225    0.113887
O      -0.204502    2.138836    0.025577
H       2.519101    2.034541   -0.006916
H       3.591377    0.006862    0.076119
H       2.505108   -2.246211   -0.079866
H      -0.048309   -2.370264    0.118883
H      -1.209511    1.998734    0.242476
15
Geometry 11 of 200
N      -1.662010   -0.380377   -0.001705
O      -2.173066   -1.475724   -0.036896
O      -2.298842    0.607814    0.049642
C      -0.235387   -0.203915   -0.000361
C       0.435767    1.062702   -0.007337
C       1.839986    0.995977   -0.045401
C       2.528454   -0.188430    0.043014
C       1.872766   -1.452211    0.074709
C       0.510954   -1.446033   -0.042689
O      -0.181910    2.235402   -0.005959
H       2.245989    2.051281   -0.245796
H       3.647762   -0.297858   -0.035742
H       2.371490   -2.430977   -0.161733
H      -0.017053   -2.490242   -0.019736
H      -1.137570    2.264187    0.088916
15
Geometry 12 of 200
N      -1.636551   -0.390168   -0.002192
O      -2.173002   -1.476820    0.196692
O      -2.334582    0.615483   -0.119935
C      -0.278123   -0.202812   -0.068117
C       0.379026    1.004040   -0.012251
C       1.876769    0.986162    0.115559
C       2.620212   -0.162623    0.036818
C       1.816671   -1.424514   -0.028102
C       0.485940   -1.448864   -0.166261
O      -0.148185    2.246043    0.024738
H       2.267206    1.826242   -0.015447
H       3.760562   -0.036986    0.126377
H       2.460014   -2.346633   -0.020013
H      -0.011190   -2.419044   -0.177447
H      -1.112175    2.114917   -0.090717
15
Geometry 13 of 200
N      -1.620192   -0.681168    0.010290
O      -2.248802    0.098397   -0.988004
O      -2.024267   -0.750162    1.186256
C      -0.179806   -0.455702   -0.081325
C       0.298348    0.953698    0.101984
C       1.608529    1.218418    0.177690
C       2.551449    0.166669    0.075534
C       2.142501   -1.164686   -0.216395
C       0.793085   -1.452482   -0.305311
O      -0.631422    1.832996    0.055924
H       1.849002    2.339746    0.373472
H       3.712720    0.562569   -0.083741
H       2.838430   -1.972322   -0.338478
H       0.526829   -2.511751   -0.341283
H      -1.647495    1.398396   -0.268175
15
Geometry 14 of 200
N      -2.225173   -0.342646    0.269568
O      -2.669018   -0.666960   -0.811008
O      -2.701957    0.630397    0.964860
C      -0.691736   -0.247467    0.280370
C      -0.058072    0.985913    0.001373
C       1.278557    1.102452   -0.143865
C       2.024984   -0.080312    0.081079
C       1.411357   -1.323427    0.138222
C       0.029154   -1.395276    0.183076
O      -0.809459    2.062792   -0.469343
H       1.666055    2.088616   -0.137024
H       3.114074   -0.065856    0.280952
H       1.794079   -2.207106    0.046133
H      -0.494778   -2.270170   -0.227442
H      -1.707274    1.669050   -0.413874
15
Geometry 15 of 200
N      -2.177344   -0.331478   -0.058056
O      -2.797023   -1.333478    0.040057
O      -2.776990    0.740208   -0.078608
C      -0.754822   -0.243710    0.023113
C      -0.173422    1.020780    0.052127
C       1.227593    1.077110    0.008442
C       2.009818   -0.062194   -0.052448
C       1.454243   -1.306395   -0.033471
C       0.052974   -1.354399    0.083383
O      -0.717296    2.234946    0.022344
H       1.745021    2.054253   -0.012431
H       3.031907   -0.097027   -0.046819
H       1.848043   -2.299666   -0.044393
H      -0.303975   -2.278065    0.051742
H      -1.655389    2.247336    0.057189
15
Geometry 16 of 200
N      -2.200453   -0.250556    0.233028
O      -2.670028   -1.077952   -0.539449
O      -2.716641    0.766106    0.649464
C      -0.699537   -0.223257    0.299179
C      -0.066600    1.070987    0.095561
C       1.272114    1.064125    0.055586
C       2.040355   -0.061233    0.076341
C       1.455912   -1.350929    0.006329
C      -0.024218   -1.447525    0.073387
O      -0.742300    2.190704   -0.378529
H       1.662838    2.097412   -0.008293
H       3.077189   -0.101483   -0.042808
H       1.945593   -2.337690   -0.010099
H      -0.605437   -2.319511   -0.059809
H      -1.715952    1.909666   -0.481820
15
Geometry 17 of 200
N      -2.057781   -0.315936    0.269976
O      -2.621055   -0.244102   -0.924376
O      -2.498992    0.438558    1.188643
C      -0.768789   -0.210869    0.353436
C      -0.141675    1.036698    0.008500
C       1.295446    1.142632   -0.128640
C       2.002004   -0.081529   -0.003609
C       1.294610   -1.328645    0.148999
C      -0.055885   -1.423580    0.229241
O      -0.891823    1.988889   -0.483565
H       1.893367    2.028305   -0.080882
H       3.090094   -0.066278   -0.124974
H       1.922248   -2.259924    0.081713
H      -0.533604   -2.330893   -0.012193
H      -1.751563    1.582859   -0.474908
15
Geometry 18 of 200
N      -1.560815   -0.624628   -0.082453
O      -2.303271    0.154581   -0.855123
O      -1.906511   -0.808877    1.117940
C      -0.141542   -0.433126   -0.079821
C       0.286605    0.933337    0.026249
C       1.626539    1.254828    0.136426
C       2.534452    0.129059    0.132167
C       2.074595   -1.125627   -0.172830
C       0.750046   -1.443593   -0.213483
O      -0.673520    1.762868    0.009558
H       2.080378    2.285361    0.401699
H       3.528114    0.377464    0.206762
H       2.865258   -1.986158   -0.490879
H       0.235469   -2.388059   -0.470375
H      -1.572002    1.239671   -0.366797
15
Geometry 19 of 200
N      -1.560636   -0.611086   -0.075873
O      -2.205412    0.157383   -0.888025
O      -1.944661   -0.817947    1.182320
C      -0.161544   -0.495929   -0.096218
C       0.212416    0.881909    0.024892
C       1.583996    1.183899    0.094671
C       2.492848    0.209890    0.093278
C       2.119595   -1.188477   -0.155375
C       0.766994   -1.465054   -0.233614
O      -0.664191    1.874265    0.056415
H       1.971514    2.265612    0.282148
H       3.599513    0.471415    0.274645
H       3.011369   -1.889787   -0.320560
H       0.299634   -2.382527   -0.699417
H      -1.432738    1.421293   -0.405040
15
Geometry 20 of 200
N      -1.698009   -0.393036    0.033886
O      -2.113469   -1.501766   -0.081540
O      -2.261503    0.654602    0.007065
C      -0.160869   -0.208334   -0.001314
C       0.420557    1.015478    0.037786
C       1.832437    1.066455   -0.072296
C       2.531324   -0.193023   -0.036913
C       1.827902   -1.430309    0.001912
C       0.411258   -1.452168    0.107445
O      -0.160364    2.183096    0.029005
H       2.428746    2.027815   -0.092372
H       3.570924   -0.015628    0.028792
H       2.419737   -2.405398   -0.017551
H      -0.395974   -2.227868    0.093424
H      -1.287787    1.973748   -0.121694
15
Geometry 21 of 200
N      -1.660683   -0.357948   -0.012699
O      -2.150085   -1.443885    0.014432
O      -2.294924    0.733887    0.041338
C      -0.141536   -0.255727    0.025732
C       0.447716    1.004488    0.009755
C       1.802781    0.979510    0.016761
C       2.562315   -0.100887    0.085574
C       1.903310   -1.475442   -0.005866
C       0.450686   -1.482890   -0.085457
O      -0.268360    2.133038   -0.061406
H       2.372979    1.882197    0.088602
H       3.689111   -0.014028   -0.161704
H       2.485548   -2.383939   -0.189857
H      -0.209937   -2.425057   -0.003217
H      -1.211198    2.049357   -0.113680
15
Geometry 22 of 200
N      -2.123916   -0.338429    0.020016
O      -2.689934   -1.392478    0.011115
O      -2.788280    0.786327    0.083186
C      -0.789314   -0.153460   -0.046367
C      -0.028263    1.077903   -0.000294
C       1.369175    1.116680    0.029064
C       2.030748   -0.047687    0.037978
C       1.342016   -1.343688    0.052680
C      -0.066730   -1.323665   -0.029287
O      -0.717364    2.265399   -0.009068
H       1.676081    2.180001   -0.181504
H       3.125669   -0.176369   -0.034834
H       1.880555   -2.223289    0.064980
H      -0.566676   -2.308611   -0.106898
H      -1.621868    1.883618    0.146428
15
Geometry 23 of 200
N      -1.661468   -0.389409    0.064788
O      -2.209157   -1.452807   -0.043551
O      -2.328749    0.662773   -0.002337
C      -0.183769   -0.292415    0.084989
C       0.468417    1.021400    0.118611
C       1.886218    1.010966    0.046219
C       2.562324   -0.180836    0.016280
C       1.851179   -1.419410   -0.132265
C       0.509287   -1.400028    0.024306
O      -0.223575    2.181675   -0.150697
H       2.360584    2.060425    0.251048
H       3.648141   -0.159039    0.128261
H       2.449392   -2.282490   -0.231049
H      -0.184777   -2.284954    0.055443
H      -1.164484    1.883163    0.061120
15
Geometry 24 of 200
N      -1.611287   -0.639704   -0.090001
O      -2.249981    0.205868   -0.841375
O      -1.855970   -0.836156    1.075289
C      -0.168138   -0.443162   -0.023513
C       0.188413    0.910867    0.021319
C       1.654015    1.214371    0.125869
C       2.585312    0.152234    0.031107
C       2.118832   -1.110147   -0.098096
C       0.740124   -1.417811   -0.218816
O      -0.702606    1.808032    0.023005
H       1.943704    2.069515    0.420126
H       3.650391    0.240668    0.227996
H       2.690116   -2.121232   -0.245049
H       0.269271   -2.529208   -0.389295
H      -1.718663    1.116944   -0.450851
15
Geometry 25 of 200
N      -1.669882   -0.377078    0.010630
O      -2.155730   -1.470401    0.035734
O      -2.353485    0.710201   -0.116484
C      -0.183718   -0.258386    0.083571
C       0.419246    1.004003    0.002596
C       1.862390    1.040396    0.007171
C       2.537531   -0.159249   -0.102945
C       1.884988   -1.408703    0.028273
C       0.471478   -1.449513    0.008251
O      -0.178169    2.131936    0.077880
H       2.317236    2.036494   -0.067626
H       3.641885   -0.371614    0.007378
H       2.566803   -2.279940   -0.012002
H      -0.130550   -2.365723   -0.129877
H      -1.150244    1.952543   -0.131255
15
Geometry 26 of 200
N      -1.676011   -0.367297    0.032419
O      -2.220878   -1.396734    0.012882
O      -2.214087    0.698793    0.009943
C      -0.169794   -0.243135   -0.040019
C       0.365289    0.993823   -0.073687
C       1.761511    0.970080    0.094327
C       2.567207   -0.106093    0.034386
C       1.897166   -1.418790    0.010674
C       0.557857   -1.506090   -0.058565
O      -0.210804    2.124580   -0.007557
H       2.197752    1.947165   -0.047231
H       3.635752   -0.191510   -0.210265
H       2.511171   -2.316003   -0.129813
H      -0.127907   -2.307548    0.175444
H      -1.411015    1.806144   -0.154063
15
Geometry 27 of 200
N      -1.586447   -0.323719   -0.019205
O      -2.140317   -1.412494   -0.058410
O      -2.339862    0.692409    0.051432
C      -0.176301   -0.235823    0.029451
C       0.395020    0.957629   -0.059875
C       1.766079    0.976103   -0.050714
C       2.560988   -0.190913   -0.020831
C       1.883572   -1.498330    0.079700
C       0.563710   -1.438831    0.012502
O      -0.259164    2.191407    0.057136
H       2.234138    1.944973   -0.290853
H       3.508566   -0.095820    0.025298
H       2.499733   -2.398972    0.103084
H      -0.031080   -2.329614   -0.044522
H      -1.229530    1.944608   -0.135375
15
Geometry 28 of 200
N      -2.186515   -0.256487    0.058975
O      -2.759357   -1.311134   -0.043628
O      -2.781428    0.760474   -0.016378
C      -0.749293   -0.266781    0.073647
C      -0.130720    1.025150    0.046287
C       1.248378    1.074056   -0.028907
C       2.064453   -0.092146   -0.049518
C       1.395404   -1.305815    0.049084
C      -0.038744   -1.362559    0.040626
O      -0.752030    2.151528    0.060983
H       1.766314    2.161087   -0.229452
H       3.160186   -0.051327   -0.005136
H       2.001936   -2.081721    0.133285
H      -0.400417   -2.378628   -0.075327
H      -1.731439    1.908120   -0.050584
15
Geometry 29 of 200
N      -2.144420   -0.300266    0.321762
O      -2.680299   -0.624809   -0.758486
O      -2.706504    0.574171    1.036038
C      -0.712732   -0.186916    0.391626
C      -0.105412    1.036382    0.094361
C       1.332352    1.104887    0.052773
C       2.005203   -0.124339   -0.011816
C       1.356991   -1.353088    0.091418
C      -0.011913   -1.400588    0.242025
O      -0.774871    2.007026   -0.428611
H       1.869646    2.074215   -0.202095
H       3.069694   -0.157942    0.138195
H       1.945890   -2.186199   -0.231431
H      -0.610608   -2.286722   -0.221965
H      -1.705850    1.837138   -0.512540
15
Geometry 30 of 200
N      -1.598706   -0.664370   -0.181134
O      -2.229482    0.140781   -0.885786
O      -1.841576   -0.782855    1.135919
C      -0.174107   -0.478704   -0.100871
C       0.216165    0.961937    0.097735
C       1.549842    1.202680    0.157265
C       2.487500    0.185784    0.063593
C       2.086286   -1.138117   -0.171357
C       0.721721   -1.525281   -0.181512
O      -0.583395    1.863843    0.070562
H       1.771030    2.313403    0.003411
H       3.489075    0.415092    0.026796
H       2.912105   -1.871250   -0.222109
H       0.424987   -2.558033   -0.263341
H      -1.576067    1.336821   -0.090371
15
Geometry 31 of 200
N      -1.612584   -0.394847   -0.036204
O      -2.212791   -1.485548    0.019106
O      -2.265079    0.662279   -0.000721
C      -0.210913   -0.263806   -0.033914
C       0.399245    0.996549   -0.037003
C       1.819293    1.002670   -0.024607
C       2.528570   -0.147356    0.015792
C       1.815352   -1.426544    0.014993
C       0.514155   -1.389836    0.002834
O      -0.163037    2.202187    0.065767
H       2.244763    1.888470   -0.171257
H       3.648941   -0.193689    0.022895
H       2.561267   -2.300646   -0.007377
H      -0.092270   -2.286710    0.176614
H      -1.141248    1.968119   -0.105142
15
Geometry 32 of 200
N      -1.623582   -0.305715    0.008440
O      -2.109034   -1.416171    0.002125
O      -2.260060    0.687500    0.021498
C      -0.191044   -0.278924   -0.038589
C       0.392213    0.984071   -0.054610
C       1.770218    1.011055    0.035241
C       2.513696   -0.162912   -0.008783
C       1.843287   -1.413244    0.031630
C       0.505726   -1.440903   -0.014234
O      -0.237704    2.083370   -0.024887
H       2.306354    1.833067    0.104040
H       3.633986   -0.325570    0.022139
H       2.601880   -2.311510    0.075339
H      -0.087783   -2.284697   -0.115142
H      -1.203912    2.137030    0.358734
15
Geometry 33 of 200
N      -1.678387   -0.354213   -0.048264
O      -2.195933   -1.475663    0.005998
O      -2.305351    0.665320   -0.054741
C      -0.198519   -0.218373    0.023202
C       0.392616    1.009420    0.019737
C       1.842074    1.025136   -0.051730
C       2.540630   -0.190095   -0.026162
C       1.910518   -1.411774   -0.005457
C       0.516429   -1.476812    0.099695
O      -0.182765    2.188306    0.075446
H       2.206846    1.917111   -0.227427
H       3.636415   -0.258842   -0.123457
H       2.603895   -2.457948   -0.125152
H      -0.069626   -2.367333    0.008422
H      -1.211214    2.095521    0.069967
15
Geometry 34 of 200
N      -1.572550   -0.686166   -0.110335
O      -2.209490    0.227183   -0.825686
O      -1.924501   -0.821867    1.120785
C      -0.203625   -0.526189   -0.057342
C       0.217441    0.863505    0.079796
C       1.592775    1.199110    0.118434
C       2.536323    0.224838    0.079545
C       2.047766   -1.145113   -0.180863
C       0.758393   -1.415527   -0.246647
O      -0.609910    1.839008   -0.001797
H       1.907427    2.325751    0.070119
H       3.542148    0.404287    0.339412
H       2.899315   -1.866842   -0.142391
H       0.601531   -2.436462   -0.249007
H      -1.568422    1.210823   -0.298792
15
Geometry 35 of 200
N      -1.537376   -0.672250   -0.021491
O      -2.279771    0.053273   -0.952142
O      -1.924739   -0.812890    1.178847
C      -0.144821   -0.371075   -0.059525
C       0.243101    0.923889    0.078019
C       1.636972    1.191334    0.155032
C       2.564532    0.162756    0.155770
C       2.050018   -1.151388   -0.162058
C       0.670463   -1.377344   -0.323282
O      -0.627820    1.861963    0.010078
H       2.056938    2.113601    0.081623
H       3.575495    0.384481    0.145027
H       2.880659   -1.944737   -0.493859
H       0.294663   -2.422877   -0.667070
H      -1.538758    1.460233   -0.222348
15
Geometry 36 of 200
N      -1.618052   -0.645792   -0.046038
O      -2.216673    0.082035   -0.945802
O      -1.858887   -0.790997    1.170051
C      -0.217697   -0.463078   -0.160333
C       0.242753    0.901206    0.055419
C       1.624682    1.234082    0.074825
C       2.513984    0.165417    0.153819
C       2.076720   -1.145891   -0.144661
C       0.727530   -1.496100   -0.265333
O      -0.641322    1.902835    0.081593
H       1.966052    2.404464    0.463676
H       3.465316    0.365063    0.098363
H       2.974973   -1.901662   -0.366593
H       0.353076   -2.537493   -0.487379
H      -1.523393    1.542113   -0.090821
15
Geometry 37 of 200
N      -1.682873   -0.372750    0.016650
O      -2.182989   -1.471170   -0.005443
O      -2.326590    0.711569    0.062734
C      -0.213470   -0.258877   -0.041869
C       0.422791    1.035176    0.037613
C       1.822102    1.041268   -0.018639
C       2.565012   -0.163668    0.075997
C       1.876002   -1.457572    0.000583
C       0.551580   -1.505852   -0.075333
O      -0.192968    2.181812   -0.085827
H       2.427550    2.022708    0.001575
H       3.625350   -0.039730    0.185703
H       2.337069   -2.354432    0.052863
H       0.022520   -2.428171   -0.124159
H      -1.085711    1.871238    0.292348
15
Geometry 38 of 200
N      -1.643311   -0.300539    0.010357
O      -2.174827   -1.399728   -0.002210
O      -2.345564    0.711782   -0.010323
C      -0.200302   -0.298859    0.006795
C       0.477192    0.973219   -0.032757
C       1.808519    1.004168    0.053302
C       2.541774   -0.117101   -0.007688
C       1.889153   -1.387133   -0.029713
C       0.517066   -1.495666    0.020739
O      -0.215007    2.052812   -0.007129
H       2.154383    2.078206    0.004437
H       3.629042   -0.178502   -0.070348
H       2.516244   -2.162281   -0.030524
H       0.047683   -2.589648    0.081946
H      -1.176498    1.974106    0.037238
15
Geometry 39 of 200
N      -1.613910   -0.711075   -0.090780
O      -2.237979    0.117389   -0.896544
O      -1.923509   -0.797704    1.175530
C      -0.184840   -0.441615   -0.103295
C       0.302930    0.948373    0.053820
C       1.615264    1.193871    0.211262
C       2.486275    0.209655    0.054052
C       2.092263   -1.128513   -0.155627
C       0.704407   -1.455650   -0.282071
O      -0.607475    1.843159    0.026310
H       2.103957    2.388932    0.201791
H       3.514361    0.330111    0.239032
H       2.735613   -1.936599   -0.387198
H       0.548920   -2.290197   -0.219463
H      -1.435432    1.368969   -0.326003
15
Geometry 40 of 200
N      -1.709560   -0.376747   -0.020700
O      -2.146391   -1.445093   -0.084229
O      -2.376757    0.702862    0.017158
C      -0.182342   -0.270557    0.069953
C       0.465754    1.019394    0.023423
C       1.820794    1.030870   -0.087587
C       2.583205   -0.201560   -0.009572
C       1.903453   -1.433130   -0.004856
C       0.508869   -1.433177    0.124695
O      -0.191226    2.147410    0.022906
H       2.208856    2.064616   -0.253030
H       3.513837   -0.099107   -0.139555
H       2.348652   -2.370040    0.040664
H      -0.011904   -2.348469   -0.127972
H      -1.091051    1.916789    0.166900
15
Geometry 41 of 200
N      -1.565255   -0.656595   -0.181067
O      -2.147555    0.157459   -0.931801
O      -1.879180   -0.793814    1.161400
C      -0.245364   -0.485920   -0.005107
C       0.237759    0.904947    0.049113
C       1.587835    1.233498    0.088030
C       2.497521    0.166649   -0.022522
C       2.075225   -1.139259   -0.106951
C       0.704756   -1.468283   -0.188427
O      -0.654826    1.827011    0.130776
H       1.801715    2.338632    0.363389
H       3.559840    0.535769    0.002468
H       2.881117   -1.995435   -0.227949
H       0.496974   -2.492096   -0.394074
H      -1.403539    1.462277   -0.269049
15
Geometry 42 of 200
N      -1.670535   -0.346569    0.012786
O      -2.083411   -1.447155    0.012562
O      -2.360529    0.759412    0.002707
C      -0.225140   -0.250144   -0.033380
C       0.455973    0.979130   -0.081834
C       1.782627    1.022556    0.043710
C       2.542194   -0.204451    0.000135
C       1.916083   -1.401138    0.038690
C       0.480596   -1.432984   -0.044826
O      -0.213254    2.080204    0.023888
H       2.244666    1.934884    0.036083
H       3.794166   -0.050751   -0.141180
H       2.398570   -2.411939    0.101182
H      -0.029598   -2.397487    0.078962
H      -1.193864    1.891672    0.024037
15
Geometry 43 of 200
N      -1.557744   -0.663978   -0.022288
O      -2.140806    0.153242   -0.856850
O      -1.955189   -0.742702    1.113950
C      -0.183605   -0.484190   -0.110050
C       0.199840    0.894823    0.095137
C       1.611360    1.255309    0.145844
C       2.557047    0.214968    0.074968
C       2.044983   -1.140169   -0.184001
C       0.739440   -1.518075   -0.274665
O      -0.675318    1.820995    0.025260
H       1.707937    2.290804    0.436056
H       3.739815    0.297344    0.043784
H       2.829473   -1.936355   -0.238539
H       0.375792   -2.509809   -0.571162
H      -1.341303    1.067446   -0.428732
15
Geometry 44 of 200
N      -1.627187   -0.327753    0.011228
O      -2.139202   -1.433912    0.048301
O      -2.355474    0.747367    0.004335
C      -0.241472   -0.267245   -0.137483
C       0.437165    0.990780   -0.065427
C       1.855678    1.003592   -0.026431
C       2.580053   -0.154349    0.103783
C       1.874377   -1.413685   -0.009729
C       0.557224   -1.499927   -0.039793
O      -0.263832    2.096320    0.057061
H       2.337760    2.037052   -0.054257
H       3.553165   -0.233025   -0.075615
H       2.440581   -2.385762    0.205751
H      -0.106634   -2.303363    0.081363
H      -1.194053    1.886102   -0.005044
15
Geometry 45 of 200
N      -1.587822   -0.608718   -0.079940
O      -2.316262    0.120945   -0.902792
O      -1.852760   -0.762118    1.138877
C      -0.161976   -0.414018   -0.147577
C       0.257006    0.943161    0.045319
C       1.625320    1.230146    0.184656
C       2.514793    0.158961    0.091951
C       2.169118   -1.175451   -0.112416
C       0.719051   -1.477002   -0.298060
O      -0.694848    1.791953    0.066038
H       2.019200    2.155521    0.131032
H       3.691411    0.279877    0.129276
H       2.905792   -1.911259   -0.129702
H       0.292240   -2.402474   -0.282626
H      -1.589036    1.228769   -0.237980
15
Geometry 46 of 200
N      -1.654902   -0.686476   -0.130152
O      -2.251718    0.205991   -0.952561
O      -1.838921   -0.765987    1.126077
C      -0.174744   -0.456835    0.004050
C       0.251441    0.908700    0.030565
C       1.642466    1.176913    0.146825
C       2.549385    0.184618   -0.005300
C       2.062929   -1.086412   -0.163779
C       0.769399   -1.472497   -0.157872
O      -0.686327    1.782915    0.085741
H       2.037066    2.214624    0.426552
H       3.535277    0.462311    0.161229
H       2.657818   -1.893481   -0.203382
H       0.399185   -2.512827   -0.335716
H      -1.533380    1.049873   -0.122181
15
Geometry 47 of 200
N      -1.592055   -0.355821   -0.008357
O      -2.067338   -1.456330   -0.106645
O      -2.339889    0.679667    0.088014
C      -0.239465   -0.162619    0.134885
C       0.394879    0.953935   -0.100488
C       1.849868    0.989318    0.014402
C       2.474492   -0.144589   -0.005899
C       1.830540   -1.435289   -0.021443
C       0.502208   -1.466994    0.060738
O      -0.191877    2.140804   -0.023925
H       2.310406    1.998715    0.022555
H       3.669642   -0.197099   -0.064943
H       2.293284   -2.260622    0.052311
H      -0.240676   -2.369949   -0.008287
H      -1.008339    1.976135   -0.184855
15
Geometry 48 of 200
N      -1.561078   -0.668108   -0.085224
O      -2.252020    0.152207   -0.912795
O      -1.873613   -0.846377    1.243234
C      -0.227051   -0.425188   -0.073960
C       0.264073    1.025260    0.056591
C       1.680872    1.239476    0.144043
C       2.526739    0.195787    0.207998
C       2.063576   -1.161164   -0.177026
C       0.699897   -1.510043   -0.378160
O      -0.693052    1.837960   -0.028967
H       2.121676    2.239188    0.203057
H       3.635716    0.245959    0.329608
H       2.822075   -2.034280   -0.303743
H       0.445821   -2.570962   -0.432818
H      -1.418345    1.285656   -0.341235
15
Geometry 49 of 200
N      -1.558774   -0.343519   -0.039709
O      -2.202933   -1.501621   -0.090830
O      -2.289282    0.695091    0.136527
C      -0.224787   -0.196821   -0.002196
C       0.430490    1.040134    0.030285
C       1.851775    0.981431   -0.036335
C       2.561560   -0.230827    0.005804
C       1.872262   -1.433911    0.037096
C       0.500992   -1.419911    0.060769
O      -0.291125    2.172860   -0.059868
H       2.401071    1.903503   -0.134255
H       3.718334   -0.221756    0.146696
H       2.421052   -2.252332   -0.199060
H       0.034782   -2.453004   -0.060150
H      -1.285054    1.960807   -0.103655
15
Geometry 50 of 200
N      -1.622893   -0.436698   -0.009605
O      -2.190230   -1.403510    0.038755
O      -2.213255    0.701108   -0.052667
C      -0.158847   -0.255099   -0.040498
C       0.375287    1.041255    0.060447
C       1.843011    1.074948   -0.009599
C       2.580033   -0.206047   -0.040169
C       1.879062   -1.436139    0.009330
C       0.418258   -1.481930   -0.004231
O      -0.270526    2.147410    0.030198
H       2.327323    2.055696    0.078649
H       3.740457   -0.051085   -0.108210
H       2.469247   -2.427768    0.119933
H      -0.198850   -2.317215    0.125185
H      -1.342491    1.852531    0.000572
15
Geometry 51 of 200
N      -1.612361   -0.638201   -0.156020
O      -2.346854    0.223325   -0.767270
O      -1.857621   -0.939946    1.132903
C      -0.116901   -0.447072   -0.113042
C       0.242990    0.864350    0.061634
C       1.667234    1.223351    0.269060
C       2.583057    0.211604    0.043216
C       2.057035   -1.132401   -0.131844
C       0.688636   -1.434985   -0.184330
O      -0.654421    1.873979   -0.142206
H       2.162397    2.211312    0.492154
H       3.748148    0.309873    0.218230
H       2.767908   -1.994031   -0.269177
H       0.405594   -2.411883   -0.296962
H      -1.481846    1.231740   -0.425673
15
Geometry 52 of 200
N      -1.662988   -0.349980    0.037288
O      -2.194950   -1.391157   -0.059189
O      -2.316108    0.677477    0.123767
C      -0.209081   -0.334192   -0.072310
C       0.446598    0.947212   -0.129733
C       1.836449    1.026218   -0.048916
C       2.518170   -0.134964    0.096652
C       1.916066   -1.424306    0.064601
C       0.510516   -1.504290   -0.020602
O      -0.188589    2.185723   -0.012179
H       2.111910    1.984809    0.075765
H       3.553433    0.074433    0.100658
H       2.560006   -2.077712   -0.017946
H      -0.083715   -2.394015   -0.257208
H      -1.103169    1.792909   -0.020573
15
Geometry 53 of 200
N      -1.592099   -0.392677   -0.047777
O      -2.127088   -1.407744    0.169079
O      -2.330942    0.687327   -0.190084
C      -0.208963   -0.174488    0.051730
C       0.443798    1.003014    0.050595
C       1.850379    0.986077    0.001833
C       2.541182   -0.171836    0.008686
C       1.886570   -1.457371   -0.107320
C       0.475593   -1.472731   -0.025834
O      -0.275470    2.181888    0.091288
H       2.244561    1.963440    0.023003
H       3.649182   -0.225461    0.120817
H       2.340333   -2.418361   -0.211095
H      -0.055510   -2.412273    0.062069
H      -1.204082    1.573266   -0.210704
15
Geometry 54 of 200
N      -1.608191   -0.672415   -0.036639
O      -2.206060    0.137427   -0.886818
O      -1.954336   -0.782176    1.152886
C      -0.165319   -0.451318   -0.092825
C       0.240049    0.913634    0.085754
C       1.639021    1.200706    0.184809
C       2.514276    0.194316    0.044020
C       2.036532   -1.142381   -0.188599
C       0.803677   -1.478927   -0.225068
O      -0.645286    1.840644   -0.005079
H       1.964804    2.211166    0.360517
H       3.614939    0.340572    0.269422
H       2.869213   -1.739687   -0.427433
H       0.494638   -2.455483   -0.745805
H      -1.677064    1.351344   -0.371111
15
Geometry 55 of 200
N      -1.597661   -0.669110   -0.085561
O      -2.268642    0.104901   -0.937578
O      -1.924797   -0.756900    1.185174
C      -0.153202   -0.444192   -0.082909
C       0.210124    0.878074    0.093056
C       1.633727    1.177920    0.224535
C       2.484655    0.222655    0.086507
C       2.091974   -1.108536   -0.227282
C       0.787682   -1.510899   -0.248540
O      -0.611146    1.867448    0.014211
H       2.081348    2.194370    0.180884
H       3.595190    0.469444    0.021916
H       2.726139   -2.046417   -0.202133
H       0.399550   -2.455154   -0.542001
H      -1.560220    1.531524   -0.068603
15
Geometry 56 of 200
N      -1.675407   -0.336413   -0.044455
O      -2.139676   -1.415296   -0.045666
O      -2.289193    0.717698    0.041351
C      -0.250707   -0.266544    0.057525
C       0.406697    1.022008    0.011273
C       1.896915    0.977532    0.017750
C       2.499409   -0.178375   -0.054486
C       1.934520   -1.413473    0.049045
C       0.574663   -1.446792   -0.002834
O      -0.311588    2.112921   -0.038824
H       2.590902    1.887885    0.140662
H       3.612052   -0.342356   -0.283248
H       2.360930   -2.486789    0.046444
H       0.025990   -2.425364    0.225126
H      -1.189429    1.986471    0.232733
15
Geometry 57 of 200
N      -1.611096   -0.699076   -0.129065
O      -2.241798    0.164356   -0.915001
O      -1.899134   -0.771459    1.146358
C      -0.213412   -0.396648   -0.040200
C       0.265699    0.892094    0.060916
C       1.646393    1.262015    0.147811
C       2.502003    0.211785    0.056340
C       2.113338   -1.190879   -0.172752
C       0.729346   -1.454315   -0.181623
O      -0.648701    1.776640    0.061911
H       1.962347    2.336180    0.502155
H       3.612496    0.306740   -0.114351
H       3.012102   -1.978585   -0.371959
H       0.458706   -2.504266   -0.433645
H      -1.657510    1.280624   -0.356075
15
Geometry 58 of 200
N      -1.594153   -0.633293   -0.047621
O      -2.156030    0.096810   -0.862766
O      -2.025253   -0.778032    1.114898
C      -0.196391   -0.493502   -0.100848
C       0.271298    0.870031    0.092664
C       1.618636    1.248624    0.136589
C       2.488362    0.191579    0.077419
C       2.117511   -1.130771   -0.188725
C       0.781132   -1.459530   -0.238930
O      -0.637470    1.855089    0.053902
H       1.935293    2.469159    0.205089
H       3.576588    0.297300   -0.064218
H       2.916445   -1.915938   -0.575091
H       0.233699   -2.509974   -0.320546
H      -1.457886    1.298643   -0.372120
15
Geometry 59 of 200
N      -1.644778   -0.676825   -0.043852
O      -2.224018    0.159423   -0.957092
O      -1.921169   -0.747377    1.178761
C      -0.179128   -0.487106   -0.109753
C       0.264107    0.905226    0.042738
C       1.595459    1.182247    0.253843
C       2.497694    0.187340   -0.034354
C       2.104090   -1.066559   -0.130996
C       0.805502   -1.451872   -0.251036
O      -0.639494    1.789749    0.055269
H       2.027523    2.105774    0.357651
H       3.512512    0.381704    0.029508
H       2.819348   -1.952324   -0.308990
H       0.445810   -2.611886   -0.317956
H      -1.514041    1.473251   -0.277891
15
Geometry 60 of 200
N      -1.568661   -0.634090   -0.051794
O      -2.167719    0.065611   -0.996455
O      -1.948678   -0.638732    1.191187
C      -0.149389   -0.499028   -0.129213
C       0.185155    0.830492    0.212835
C       1.611860    1.245019    0.134229
C       2.512483    0.175905    0.062058
C       2.115626   -1.136074   -0.207529
C       0.758762   -1.454204   -0.287917
O      -0.698660    1.797438    0.100615
H       1.969145    2.358498    0.161837
H       3.662870    0.146526   -0.008097
H       2.797373   -1.868087   -0.295978
H       0.402096   -2.469925   -0.569795
H      -1.507049    1.450570   -0.180235
15
Geometry 61 of 200
N      -1.670259   -0.320900   -0.012659
O      -2.190691   -1.424941    0.043881
O      -2.424475    0.661256   -0.007304
C      -0.226114   -0.227007    0.031187
C       0.479678    0.963847   -0.046863
C       1.775672    0.987777    0.071443
C       2.580823   -0.177970    0.038812
C       1.920062   -1.389770   -0.004818
C       0.596777   -1.449925   -0.075541
O      -0.152212    2.128192   -0.019576
H       2.362183    2.001064   -0.063921
H       3.441528   -0.010198   -0.126038
H       2.283136   -2.467413   -0.073027
H       0.067930   -2.455091   -0.073842
H      -1.201369    1.993176    0.017004
15
Geometry 62 of 200
N      -1.675816   -0.355196    0.051642
O      -2.186832   -1.467980   -0.025569
O      -2.339003    0.669718   -0.001411
C      -0.177121   -0.204076   -0.041838
C       0.451845    1.031796    0.006288
C       1.821707    1.006339   -0.032161
C       2.518627   -0.194786   -0.024364
C       1.915652   -1.401322    0.109770
C       0.502207   -1.440073   -0.058300
O      -0.179655    2.132527    0.026083
H       2.353615    2.042036   -0.227235
H       3.549278   -0.253034    0.033491
H       2.487454   -2.230007    0.002683
H      -0.109564   -2.374136   -0.030912
H      -1.128034    1.708451    0.036041
15
Geometry 63 of 200
N      -1.594250   -0.632366   -0.047268
O      -2.271001    0.145095   -0.804391
O      -1.955379   -0.846955    1.135930
C      -0.187395   -0.459982   -0.159232
C       0.261201    0.901953    0.047545
C       1.652296    1.207586    0.064533
C       2.532365    0.191405    0.175520
C       2.088587   -1.089820   -0.119526
C       0.725884   -1.472552   -0.322621
O      -0.606490    1.833581   -0.019743
H       2.053825    2.247498    0.234677
H       3.646858    0.403890    0.483635
H       2.910718   -1.774531   -0.266006
H       0.424282   -2.421968   -0.521241
H      -1.475186    1.344868   -0.148437
15
Geometry 64 of 200
N      -1.560061   -0.645555   -0.024903
O      -2.202326    0.157800   -0.920651
O      -1.970575   -0.793803    1.134465
C      -0.197497   -0.471651   -0.051118
C       0.269156    0.891701    0.063310
C       1.669391    1.261092    0.195419
C       2.469278    0.182047    0.009319
C       2.107377   -1.140573   -0.158752
C       0.735667   -1.484648   -0.272706
O      -0.653072    1.795180    0.023019
H       1.903089    2.381334    0.288629
H       3.595550    0.554164    0.109858
H       2.870772   -1.859256   -0.271596
H       0.324577   -2.550870   -0.395606
H      -1.577369    1.356214   -0.142227
15
Geometry 65 of 200
N      -2.218636   -0.238597    0.245262
O      -2.650960    0.060425   -1.020819
O      -2.668389    0.200240    1.266763
C      -0.711777   -0.222065    0.154708
C      -0.138860    0.978460   -0.064851
C       1.272689    1.117023   -0.177676
C       2.040715    0.030339    0.032223
C       1.350691   -1.313624    0.120141
C       0.014807   -1.436620    0.198303
O      -0.869611    2.033272   -0.493294
H       1.781602    2.077436   -0.148376
H       3.103117   -0.224735    0.176358
H       2.001006   -2.229080    0.070331
H      -0.467403   -2.335162    0.120065
H      -1.864673    1.556132   -0.419331
15
Geometry 66 of 200
N      -1.637311   -0.378597    0.009282
O      -2.147432   -1.467892   -0.143682
O      -2.347692    0.630533    0.195052
C      -0.209473   -0.183141    0.016238
C       0.416545    0.998749   -0.071830
C       1.872936    0.980388   -0.032499
C       2.544146   -0.188376    0.041416
C       1.775289   -1.383517    0.058155
C       0.566465   -1.477242    0.026374
O      -0.184919    2.231304   -0.087488
H       2.317211    2.013217    0.149280
H       3.682210   -0.343285   -0.038218
H       2.379079   -2.339794    0.070054
H      -0.145170   -2.435981   -0.180722
H      -1.165346    1.939611   -0.042966
15
Geometry 67 of 200
N      -2.200554   -0.258273    0.143148
O      -2.736966    0.061814   -1.021874
O      -2.489805    0.349839    1.265269
C      -0.800275   -0.223536    0.187167
C      -0.103045    1.014532   -0.130981
C       1.353929    1.018311   -0.099340
C       2.038743   -0.100084    0.086420
C       1.312264   -1.349924    0.084406
C      -0.049152   -1.437810    0.203480
O      -0.844684    2.019116   -0.470518
H       1.719494    2.001577   -0.036360
H       3.094698    0.000260    0.036434
H       1.887092   -2.344206    0.272379
H      -0.550652   -2.432352   -0.018691
H      -1.786976    1.747878   -0.487355
15
Geometry 68 of 200
N      -1.627671   -0.353209    0.026029
O      -2.133690   -1.472537    0.071909
O      -2.333584    0.693278   -0.059587
C      -0.190164   -0.246033   -0.026883
C       0.410219    1.007309   -0.037058
C       1.851383    1.022923    0.007755
C       2.545069   -0.139608    0.071004
C       1.850317   -1.393507   -0.046802
C       0.424782   -1.497360   -0.046656
O      -0.209965    2.153733    0.014861
H       2.513396    1.823426    0.147221
H       3.618032   -0.373986   -0.087607
H       2.652847   -2.385290    0.093613
H       0.038426   -2.454767   -0.175797
H      -1.128529    2.090362    0.109615
15
Geometry 69 of 200
N      -2.179248   -0.242964    0.251932
O      -2.781059   -1.093487   -0.523070
O      -2.755463    0.769921    0.569428
C      -0.765373   -0.161917    0.182268
C      -0.119842    1.004625    0.038872
C       1.294666    1.084585    0.014880
C       2.048265   -0.065051    0.069417
C       1.377504   -1.289072    0.016231
C      -0.092196   -1.315936    0.130077
O      -0.827197    2.147260   -0.329620
H       1.841007    2.073153    0.249760
H       3.064172   -0.080661   -0.178249
H       1.956886   -2.291320    0.054696
H      -0.391687   -2.268842   -0.169463
H      -1.712668    1.681505   -0.390510
15
Geometry 70 of 200
N      -1.663254   -0.662313   -0.059466
O      -2.286966    0.119580   -0.886114
O      -1.856263   -0.837254    1.194602
C      -0.175785   -0.489120   -0.143185
C       0.280118    0.905054    0.019933
C       1.555971    1.160118    0.156690
C       2.547380    0.178134    0.169387
C       2.098388   -1.116202   -0.222142
C       0.760616   -1.407706   -0.266258
O      -0.612116    1.913937   -0.020337
H       2.014309    2.100942    0.645806
H       3.564273    0.222915    0.346587
H       2.942413   -1.760899   -0.211437
H       0.297374   -2.490364   -0.317354
H      -1.467850    1.674958   -0.439585
15
Geometry 71 of 200
N      -1.538216   -0.590149   -0.102975
O      -2.308419    0.118831   -0.854061
O      -1.819423   -0.788488    1.183894
C      -0.153181   -0.437739   -0.172431
C       0.194156    0.909530    0.027911
C       1.618196    1.223416    0.139447
C       2.505574    0.201110    0.203913
C       2.050751   -1.110868   -0.143953
C       0.712253   -1.527789   -0.318509
O      -0.614796    1.824162    0.012355
H       1.957251    2.141636    0.258074
H       3.422268    0.359864    0.410977
H       2.663982   -2.102018   -0.258244
H       0.581197   -2.523427   -0.551300
H      -1.500728    1.316161   -0.320383
15
Geometry 72 of 200
N      -2.135060   -0.225943    0.174551
O      -2.648172    0.234862   -1.020526
O      -2.614960    0.122025    1.230705
C      -0.797533   -0.232123    0.208430
C      -0.100338    0.984720   -0.088382
C       1.304209    1.065950   -0.043192
C       1.983678   -0.096522   -0.017912
C       1.383471   -1.337684    0.046899
C      -0.034611   -1.390752    0.087779
O      -0.816523    1.994257   -0.420476
H       1.857705    1.937340   -0.233257
H       3.010892   -0.121153    0.237910
H       2.053305   -2.123138    0.167853
H      -0.566880   -2.368134    0.123102
H      -1.810466    1.538668   -0.498644
15
Geometry 73 of 200
N      -1.571327   -0.654000   -0.086615
O      -2.225316    0.116246   -0.892663
O      -1.981933   -0.668172    1.131052
C      -0.183546   -0.471379    0.000300
C       0.256652    0.867311    0.110968
C       1.550254    1.259483    0.088624
C       2.537234    0.141588    0.104370
C       2.183787   -1.121244   -0.232919
C       0.757236   -1.521108   -0.282996
O      -0.663538    1.794844    0.056927
H       1.822281    2.162705    0.350565
H       3.498816    0.372634    0.267848
H       2.981179   -1.804981   -0.313808
H       0.519736   -2.327638   -0.717929
H      -1.379229    1.286175   -0.183819
15
Geometry 74 of 200
N      -1.639588   -0.652370   -0.144764
O      -2.266135    0.214188   -0.854934
O      -1.952697   -0.886331    1.109320
C      -0.159160   -0.476967   -0.109692
C       0.236688    0.959431    0.052347
C       1.665366    1.212762    0.113383
C       2.585880    0.178754   -0.034461
C       2.114264   -1.121994   -0.050419
C       0.723087   -1.471608   -0.151545
O      -0.647489    1.808242    0.067268
H       2.051768    2.291639    0.322734
H       3.652126    0.514776   -0.173852
H       2.957658   -1.841256   -0.137942
H       0.422361   -2.432296   -0.210391
H      -1.527530    1.343542   -0.255061
15
Geometry 75 of 200
N      -1.606192   -0.629139   -0.060591
O      -2.191419    0.102874   -0.958154
O      -2.018165   -0.759650    1.132643
C      -0.139412   -0.467169    0.013973
C       0.252203    0.919243    0.098656
C       1.650666    1.234469    0.180237
C       2.561843    0.160245   -0.002553
C       2.150671   -1.160320   -0.250162
C       0.779600   -1.490860   -0.235938
O      -0.750522    1.851018    0.060777
H       2.082450    2.267218    0.503449
H       3.720501    0.383992   -0.010466
H       2.812668   -1.933993   -0.442872
H       0.256652   -2.539917    0.024297
H      -1.495624    1.427039   -0.193720
15
Geometry 76 of 200
N      -2.211383   -0.300039    0.154656
O      -2.732921    0.124832   -0.935590
O      -2.464140    0.171795    1.217043
C      -0.703557   -0.386910    0.139377
C      -0.217410    0.975258   -0.136793
C       1.229594    1.083819   -0.136410
C       1.988044   -0.105376   -0.109120
C       1.374582   -1.302084    0.178921
C      -0.005183   -1.422420    0.264360
O      -0.950073    1.987877   -0.396144
H       1.828353    1.963909   -0.248899
H       3.073981   -0.101506    0.053732
H       2.045706   -2.067790    0.314963
H      -0.440095   -2.367880    0.093664
H      -1.815437    1.761715   -0.520723
15
Geometry 77 of 200
N      -1.650851   -0.429365    0.012819
O      -2.168003   -1.436556    0.079584
O      -2.268709    0.634687   -0.051350
C      -0.214958   -0.272943   -0.097146
C       0.415450    0.981807   -0.034061
C       1.796904    1.018908    0.081275
C       2.554004   -0.164861   -0.025751
C       1.790887   -1.407742    0.024178
C       0.489545   -1.410184   -0.016134
O      -0.161363    2.228728   -0.001260
H       2.429939    1.991729    0.348068
H       3.769662   -0.145810   -0.190269
H       2.413720   -2.312842   -0.085579
H      -0.068796   -2.305748   -0.121975
H      -1.110695    1.913167    0.188779
15
Geometry 78 of 200
N      -1.645144   -0.364496   -0.008307
O      -2.147756   -1.463027    0.076749
O      -2.269440    0.691522   -0.121365
C      -0.234642   -0.281632    0.049380
C       0.429667    1.003628    0.093097
C       1.753799    1.017997    0.021861
C       2.488749   -0.159012    0.000991
C       1.883672   -1.421730   -0.045840
C       0.510495   -1.378603   -0.033164
O      -0.161925    2.136092    0.014192
H       2.165333    1.994385   -0.050259
H       3.631963   -0.437013   -0.252981
H       2.539876   -2.275608   -0.203472
H      -0.156962   -2.351749    0.118395
H      -1.092156    1.878575   -0.042693
15
Geometry 79 of 200
N      -1.678787   -0.380941   -0.041851
O      -2.120461   -1.443628    0.003649
O      -2.293776    0.728040    0.074994
C      -0.170309   -0.239085   -0.045771
C       0.444079    1.015602   -0.013637
C       1.867933    0.970671    0.076642
C       2.557417   -0.225829    0.029334
C       1.875182   -1.384811   -0.021075
C       0.494325   -1.433377    0.021292
O      -0.277243    2.128570   -0.060874
H       2.041758    2.028226   -0.150804
H       3.714548   -0.015472   -0.008490
H       2.077994   -2.376415   -0.030102
H       0.001148   -2.440583   -0.177711
H      -1.261760    2.007635    0.093079
15
Geometry 80 of 200
N      -1.705983   -0.337457   -0.028862
O      -2.261803   -1.421722    0.064751
O      -2.276153    0.598379   -0.092525
C      -0.204153   -0.254418    0.001130
C       0.418510    0.987037   -0.030988
C       1.845646    1.047014   -0.023173
C       2.560424   -0.190738   -0.006162
C       1.888649   -1.357045    0.005454
C       0.551385   -1.418388   -0.002856
O      -0.192361    2.137039    0.082997
H       2.666378    1.927910   -0.079886
H       3.703182   -0.126095   -0.055860
H       2.352548   -2.470517   -0.027870
H       0.018874   -2.516714    0.096424
H      -1.184632    1.994314    0.254389
15
Geometry 81 of 200
N      -1.538206   -0.695593    0.010680
O      -2.163084    0.138559   -0.956681
O      -1.974688   -0.697977    1.198760
C      -0.205806   -0.530101   -0.089405
C       0.253536    0.916554   -0.004737
C       1.596850    1.206353    0.218211
C       2.483271    0.219461    0.093993
C       2.120222   -1.108825   -0.244330
C       0.710524   -1.539802   -0.327196
O      -0.635931    1.820782    0.050549
H       1.821361    2.251228    0.450439
H       3.464165    0.574961    0.166974
H       2.851944   -1.788013   -0.220521
H       0.490361   -2.582358   -0.501100
H      -1.512745    1.453492   -0.104546
15
Geometry 82 of 200
N      -1.634601   -0.357998   -0.016668
O      -2.151257   -1.452266   -0.011060
O      -2.371178    0.636391   -0.014137
C      -0.235377   -0.238339    0.000730
C       0.454320    0.979203    0.134817
C       1.864553    1.106863    0.029129
C       2.573329   -0.193123   -0.036447
C       1.811606   -1.407070    0.007466
C       0.481330   -1.444024    0.029059
O      -0.165780    2.154721   -0.042134
H       2.423694    2.122345   -0.088173
H       3.724460   -0.314522   -0.369221
H       2.440518   -2.330835   -0.225325
H      -0.220244   -2.337771    0.145891
H      -1.106814    1.676582   -0.083048
15
Geometry 83 of 200
N      -1.588693   -0.316078    0.003202
O      -2.153636   -1.441282    0.004651
O      -2.312105    0.665437    0.006487
C      -0.199653   -0.243050   -0.062172
C       0.479125    0.926638    0.036483
C       1.811000    1.086686    0.008033
C       2.522254   -0.190617    0.025108
C       1.821527   -1.388396   -0.047697
C       0.500524   -1.454743    0.032389
O      -0.213241    2.110874   -0.016279
H       2.158452    1.989386   -0.052790
H       3.592217   -0.196705    0.100049
H       2.306585   -2.289662   -0.113927
H      -0.138735   -2.343704    0.181457
H      -1.180617    1.915127   -0.006001
15
Geometry 84 of 200
N      -1.664174   -0.370924   -0.033533
O      -2.196965   -1.441541   -0.043699
O      -2.336795    0.721087    0.020945
C      -0.207320   -0.313960    0.030536
C       0.437776    0.935295   -0.065002
C       1.841245    1.030105   -0.054307
C       2.544293   -0.141781    0.032491
C       1.905816   -1.397563   -0.008193
C       0.518260   -1.445777    0.085862
O      -0.196981    2.175242    0.022514
H       2.250650    1.963956    0.087449
H       3.616557   -0.208144   -0.211804
H       2.461100   -2.358879   -0.117608
H       0.102710   -2.647840    0.101665
H      -1.184039    2.108910    0.297786
15
Geometry 85 of 200
N      -1.684003   -0.341985    0.011076
O      -2.207681   -1.407899   -0.060981
O      -2.349277    0.670343    0.074701
C      -0.230578   -0.279898    0.014556
C       0.418893    1.014219   -0.004111
C       1.814474    0.992952    0.010016
C       2.640785   -0.197631    0.030103
C       1.967963   -1.462443    0.026318
C       0.556814   -1.428770   -0.042525
O      -0.259151    2.189680   -0.059971
H       2.443234    1.896402   -0.059620
H       3.692360   -0.271994   -0.082633
H       2.520820   -2.401306   -0.026921
H      -0.036938   -2.336182    0.191152
H      -1.255611    1.978577    0.100143
15
Geometry 86 of 200
N      -1.607598   -0.555193   -0.103299
O      -2.215666    0.082438   -0.916779
O      -1.787853   -0.700185    1.195045
C      -0.218293   -0.487681   -0.176197
C       0.192789    0.909811    0.017588
C       1.517655    1.206140    0.199587
C       2.408813    0.135164    0.094582
C       2.144163   -1.206661   -0.148541
C       0.816564   -1.507265   -0.292361
O      -0.650996    1.863840    0.082094
H       1.912311    2.218818    0.396299
H       3.429845    0.461266    0.223984
H       3.018682   -1.755830   -0.239270
H       0.530746   -2.562178   -0.475665
H      -1.496544    1.323287   -0.127913
15
Geometry 87 of 200
N      -1.670521   -0.336314    0.036473
O      -2.164486   -1.457051   -0.121913
O      -2.347864    0.697903    0.032654
C      -0.247443   -0.281062    0.074340
C       0.443593    0.933748   -0.015672
C       1.765821    1.006249   -0.035044
C       2.554165   -0.163667   -0.028688
C       1.906322   -1.429653   -0.064987
C       0.526669   -1.451130    0.111544
O      -0.135877    2.179585   -0.002645
H       2.128725    2.132669   -0.119008
H       3.498534    0.023607    0.135757
H       2.634799   -2.281831    0.136089
H       0.028339   -2.401580    0.322027
H      -1.159782    2.058324    0.026078
15
Geometry 88 of 200
N      -1.682208   -0.330872   -0.081327
O      -2.211275   -1.419883    0.069083
O      -2.289688    0.744376   -0.055772
C      -0.167189   -0.314691   -0.088141
C       0.373314    0.929344    0.066398
C       1.726440    1.015405    0.005531
C       2.552411   -0.208704   -0.105457
C       1.920477   -1.366500    0.036198
C       0.589294   -1.456748    0.069147
O      -0.177270    2.096066    0.078350
H       2.224582    1.933361    0.064285
H       3.582270    0.136431   -0.148573
H       2.722984   -2.251099    0.040833
H      -0.058012   -2.306827    0.133824
H      -1.231585    2.142690   -0.115146
15
Geometry 89 of 200
N      -1.558013   -0.701389   -0.107125
O      -2.223000    0.175920   -0.901886
O      -1.904373   -0.729650    1.156938
C      -0.224754   -0.427846   -0.093672
C       0.254580    0.901330    0.024441
C       1.550265    1.202455    0.225020
C       2.498070    0.224674    0.036956
C       2.113790   -1.226729   -0.176712
C       0.780573   -1.438586   -0.217473
O      -0.641643    1.795329    0.070890
H       1.898266    2.216221   -0.025782
H       3.641587    0.524361    0.140558
H       2.818003   -2.042982   -0.205045
H       0.551089   -2.395829   -0.494002
H      -1.713915    1.229062   -0.170047
15
Geometry 90 of 200
N      -1.569977   -0.637664   -0.089253
O      -2.177971    0.082938   -0.971210
O      -1.943232   -0.767749    1.158928
C      -0.208253   -0.500804   -0.031243
C       0.224988    0.875350    0.033998
C       1.604841    1.185830    0.137368
C       2.511575    0.218510    0.038657
C       2.072419   -1.131916   -0.212832
C       0.717577   -1.439940   -0.185376
O      -0.590182    1.842476    0.124255
H       1.842608    2.289706    0.181057
H       3.598831    0.621390    0.225933
H       2.860737   -1.805067   -0.557457
H       0.281094   -2.505638   -0.319258
H      -1.527042    1.580571   -0.251031
15
Geometry 91 of 200
N      -1.615569   -0.686859   -0.084913
O      -2.181211    0.078213   -0.942675
O      -1.946999   -0.733981    1.149250
C      -0.191453   -0.463353   -0.153099
C       0.278938    0.938672    0.080945
C       1.667083    1.227572    0.139894
C       2.552285    0.251697    0.066694
C       2.039792   -1.134213   -0.194024
C       0.696131   -1.497301   -0.211160
O      -0.654861    1.794232    0.127219
H       2.129894    2.295177    0.349361
H       3.670703    0.332811   -0.089097
H       2.822207   -1.863709   -0.329480
H       0.340062   -2.393997   -0.110542
H      -1.661045    1.451998   -0.225328
15
Geometry 92 of 200
N      -2.126614   -0.281832    0.333900
O      -2.612693   -0.543814   -0.796123
O      -2.700119    0.683666    1.007596
C      -0.743423   -0.259086    0.339980
C      -0.115187    0.974934    0.083341
C       1.325128    1.120230    0.068805
C       1.989859   -0.092822    0.096618
C       1.381172   -1.295603    0.109186
C      -0.041798   -1.381381    0.208077
O      -0.840168    1.970351   -0.540914
H       1.716249    2.095770    0.041228
H       2.992210   -0.084161    0.073403
H       2.092301   -2.187693   -0.155597
H      -0.502594   -2.284362   -0.132266
H      -1.798222    1.581732   -0.676041
15
Geometry 93 of 200
N      -1.582268   -0.646073   -0.043739
O      -2.390576    0.168283   -0.905984
O      -1.811711   -0.764867    1.180916
C      -0.180171   -0.512252   -0.112342
C       0.264534    0.911866    0.111224
C       1.638683    1.215386    0.221519
C       2.537297    0.169953    0.155358
C       2.077861   -1.132316   -0.150898
C       0.781193   -1.502522   -0.340487
O      -0.679755    1.828475   -0.076463
H       2.141173    2.210861    0.474388
H       3.560370    0.307008    0.158863
H       2.990805   -1.749935   -0.171005
H       0.349508   -2.295042   -0.794703
H      -1.452353    1.371680   -0.394114
15
Geometry 94 of 200
N      -2.196493   -0.373822    0.144652
O      -2.735290   -0.222018   -0.933388
O      -2.585443    0.451789    1.123677
C      -0.729484   -0.311862    0.191149
C      -0.087970    0.974581   -0.016313
C       1.252157    1.109167   -0.058851
C       2.028100   -0.055262    0.069112
C       1.412988   -1.339723    0.181555
C       0.040803   -1.430535    0.105385
O      -0.886964    2.015195   -0.329539
H       1.760366    2.029367   -0.370861
H       3.133281    0.037703    0.156867
H       2.014492   -2.155146    0.135478
H      -0.506585   -2.429863    0.010326
H      -1.908620    1.667846   -0.411407
15
Geometry 95 of 200
N      -1.672915   -0.367903   -0.036665
O      -2.149516   -1.484348   -0.034979
O      -2.314486    0.660702    0.048838
C      -0.174436   -0.206620   -0.075342
C       0.442127    1.043086   -0.006130
C       1.872971    0.974196   -0.105865
C       2.521280   -0.177808    0.007833
C       1.820671   -1.432665    0.075883
C       0.489216   -1.390018    0.039708
O      -0.202143    2.120353    0.050786
H       2.404452    1.890997   -0.188867
H       3.476667    0.014841    0.074384
H       2.546191   -2.295292    0.076215
H      -0.062030   -2.329150    0.052264
H      -1.108028    2.173695    0.258558
15
Geometry 96 of 200
N      -1.595472   -0.672163   -0.119874
O      -2.224747    0.206613   -0.880176
O      -1.901542   -0.819474    1.158775
C      -0.180879   -0.421603   -0.117273
C       0.232126    0.943805    0.081379
C       1.656575    1.206234    0.039703
C       2.556726    0.180011    0.057816
C       2.089752   -1.172132   -0.095186
C       0.748249   -1.426803   -0.248387
O      -0.690560    1.768849    0.073751
H       1.820245    2.302994    0.283332
H       3.568779    0.347808    0.354204
H       2.719819   -1.901732   -0.143865
H       0.438687   -2.436903   -0.256364
H      -1.551185    1.276408   -0.328622
15
Geometry 97 of 200
N      -1.661184   -0.378953   -0.078153
O      -2.118102   -1.490798   -0.073231
O      -2.312693    0.722214    0.113691
C      -0.280376   -0.230276    0.077288
C       0.396191    0.977476    0.030437
C       1.883318    0.975549    0.041269
C       2.567400   -0.193327   -0.013001
C       1.820213   -1.411450   -0.001325
C       0.542372   -1.377201    0.045470
O      -0.208175    2.150758   -0.095892
H       2.322037    2.032315   -0.044063
H       3.620583   -0.051459   -0.105775
H       2.379877   -2.285968   -0.259965
H      -0.113423   -2.344194    0.154325
H      -1.047126    1.807054    0.042455
15
Geometry 98 of 200
N      -1.641291   -0.659327   -0.160697
O      -2.273680    0.227496   -0.844351
O      -1.893387   -0.867158    1.169142
C      -0.204772   -0.488370   -0.150659
C       0.179068    0.867155    0.004102
C       1.632281    1.160628    0.175647
C       2.584562    0.230827    0.056765
C       2.126540   -1.156339   -0.078673
C       0.781429   -1.402713   -0.223211
O      -0.614085    1.848048    0.020287
H       1.788385    2.288578    0.176043
H       3.662398    0.458414   -0.078693
H       2.844574   -2.054724   -0.127947
H       0.431964   -2.388907   -0.027494
H      -1.607975    1.446438   -0.025149
15
Geometry 99 of 200
N      -1.699756   -0.398259    0.015560
O      -2.144762   -1.467382   -0.111246
O      -2.300538    0.702655   -0.009661
C      -0.156004   -0.282138    0.108853
C       0.395033    1.012833   -0.019177
C       1.893436    1.010182   -0.071602
C       2.500365   -0.227440   -0.073076
C       1.861472   -1.459726    0.096355
C       0.538981   -1.407206    0.048867
O      -0.257620    2.224018    0.070572
H       2.471772    2.040399   -0.299311
H       3.776082    0.054885   -0.358927
H       2.361010   -2.483963    0.071981
H      -0.086740   -2.293595    0.166571
H      -1.079244    2.082877    0.030634
15
Geometry 100 of 200
N      -1.699931   -0.372989    0.059939
O      -2.264512   -1.432118   -0.084496
O      -2.222621    0.697338   -0.059827
C      -0.172646   -0.293801    0.166017
C       0.440792    0.956429    0.037055
C       1.791583    1.014952   -0.069560
C       2.504025   -0.161220   -0.019845
C       1.937024   -1.368836   -0.034577
C       0.496630   -1.452933    0.040715
O      -0.198213    2.150043    0.018567
H       2.216208    1.934092   -0.321700
H       3.613178    0.044144    0.089799
H       2.585347   -2.173132   -0.106741
H       0.195020   -2.587624    0.107692
H      -1.100983    1.950781    0.014485
15
Geometry 101 of 200
N      -1.619231   -0.660135   -0.162702
O      -2.318965    0.056070   -0.907084
O      -1.735671   -0.762112    1.171066
C      -0.195828   -0.435870   -0.118520
C       0.178830    0.922862    0.045458
C       1.645048    1.217215    0.253297
C       2.544534    0.202678    0.076399
C       2.040859   -1.187286   -0.140237
C       0.678208   -1.498180   -0.260718
O      -0.601172    1.892730    0.027445
H       1.876999    2.324213    0.421486
H       3.699773    0.399312    0.302515
H       2.761347   -1.806374   -0.230540
H       0.444629   -2.526902   -0.498338
H      -1.541576    1.619208   -0.239439
15
Geometry 102 of 200
N      -1.618553   -0.394146   -0.013038
O      -2.170189   -1.405149   -0.044034
O      -2.325545    0.702825    0.089413
C      -0.217343   -0.249038    0.022837
C       0.400233    0.938279   -0.045888
C       1.803340    0.966414    0.032378
C       2.543613   -0.108099   -0.010780
C       1.799542   -1.389228    0.025567
C       0.571894   -1.493165    0.016058
O      -0.177125    2.157907   -0.055554
H       2.308015    1.972943   -0.042558
H       3.751013   -0.117826    0.262486
H       2.495240   -2.241795   -0.144241
H       0.059880   -2.475582   -0.238217
H      -1.208259    1.996794    0.001814
15
Geometry 103 of 200
N      -1.658198   -0.392061   -0.008473
O      -2.095434   -1.465678    0.043452
O      -2.381608    0.664024   -0.128046
C      -0.180278   -0.212817    0.154232
C       0.446593    1.036172    0.053034
C       1.876017    0.954203    0.023386
C       2.534474   -0.147002   -0.032763
C       1.832786   -1.441614   -0.082631
C       0.471103   -1.435849    0.035077
O      -0.172802    2.164015    0.001695
H       2.278172    1.992303    0.086418
H       3.556759    0.055359   -0.155124
H       2.148303   -2.309849   -0.260992
H      -0.177629   -2.279541   -0.068294
H      -1.091024    2.012048    0.035191
15
Geometry 104 of 200
N      -1.631980   -0.665464   -0.048984
O      -2.292195    0.078841   -0.919407
O      -1.937680   -0.701861    1.162321
C      -0.224891   -0.443131   -0.169446
C       0.248829    0.899465    0.027929
C       1.670846    1.221613    0.242007
C       2.618729    0.200227    0.058189
C       2.118872   -1.107496   -0.142384
C       0.779331   -1.450724   -0.318775
O      -0.660043    1.786872    0.078114
H       2.027294    2.198269    0.173191
H       3.676663    0.282015    0.091574
H       2.853540   -2.064563    0.053809
H       0.299201   -2.507702   -0.487524
H      -1.607874    1.371530   -0.084922
15
Geometry 105 of 200
N      -1.616721   -0.696651   -0.081739
O      -2.252474    0.094241   -0.923787
O      -1.912521   -0.777885    1.182704
C      -0.264454   -0.439792   -0.122430
C       0.282957    0.906234    0.058792
C       1.631425    1.213761    0.127117
C       2.530009    0.161293    0.105869
C       2.137286   -1.141241   -0.105723
C       0.726013   -1.368406   -0.289874
O      -0.609734    1.838327    0.053851
H       1.993693    2.230930    0.355276
H       3.582927    0.562368    0.088226
H       2.814292   -2.003755   -0.507704
H       0.384811   -2.493207   -0.429799
H      -1.507315    1.448405   -0.120817
15
Geometry 106 of 200
N      -1.644472   -0.388753   -0.012208
O      -2.223700   -1.458104   -0.020343
O      -2.182700    0.670137   -0.019907
C      -0.186985   -0.210302    0.011017
C       0.398733    1.043315    0.015367
C       1.837518    1.014278   -0.043830
C       2.506442   -0.169668   -0.024686
C       1.857619   -1.405270    0.019187
C       0.494274   -1.524087    0.042961
O      -0.248332    2.165755    0.030122
H       2.395947    1.991463   -0.075485
H       3.707060   -0.159260   -0.168540
H       2.533674   -2.199322    0.157634
H      -0.089833   -2.385533   -0.012123
H      -1.107157    2.002305    0.241500
15
Geometry 107 of 200
N      -1.639706   -0.721195   -0.087477
O      -2.304561    0.097115   -0.889854
O      -1.884831   -0.753349    1.145921
C      -0.228977   -0.467751   -0.107641
C       0.251396    0.908119    0.061211
C       1.571165    1.154888    0.192411
C       2.602596    0.242838    0.105067
C       2.131946   -1.156938   -0.195579
C       0.728422   -1.455002   -0.278115
O      -0.576485    1.916025    0.033281
H       1.709670    2.194485    0.447396
H       3.789722    0.502695    0.121357
H       2.843889   -1.927002   -0.127192
H       0.454302   -2.581000   -0.366210
H      -1.418977    1.515741   -0.373881
15
Geometry 108 of 200
N      -1.614314   -0.643235   -0.109651
O      -2.186145    0.140154   -0.907863
O      -1.960872   -0.760464    1.147340
C      -0.216454   -0.524774   -0.089619
C       0.172377    0.891196    0.159937
C       1.602778    1.220306    0.175951
C       2.609706    0.234009   -0.021987
C       2.144391   -1.134474   -0.214758
C       0.758545   -1.527749   -0.216080
O      -0.656113    1.882087    0.032947
H       2.020540    2.191838    0.431482
H       3.575548    0.287855    0.166128
H       2.847727   -1.937399   -0.219031
H       0.517921   -2.709844   -0.141666
H      -1.604551    1.409829   -0.188165
15
Geometry 109 of 200
N      -2.153773   -0.272082    0.311683
O      -2.623309   -0.992359   -0.565955
O      -2.797784    0.726887    0.670178
C      -0.693703   -0.138975    0.323545
C      -0.030301    1.147410    0.052609
C       1.307148    1.104351    0.043381
C       2.081939   -0.134310    0.010540
C       1.353505   -1.336816    0.023321
C       0.003984   -1.334011    0.172112
O      -0.735626    2.131109   -0.382168
H       1.753131    2.034418    0.007884
H       3.176065   -0.097813    0.052449
H       1.734569   -2.318624   -0.148020
H      -0.518862   -2.329363   -0.059192
H      -1.768591    1.765718   -0.587304
15
Geometry 110 of 200
N      -1.679750   -0.360957    0.032653
O      -2.175831   -1.479551   -0.050743
O      -2.331549    0.673100    0.033022
C      -0.268966   -0.319673   -0.079174
C       0.448284    1.003228   -0.105188
C       1.866400    1.071412    0.005959
C       2.521991   -0.123983    0.011597
C       1.859781   -1.374112   -0.007389
C       0.471121   -1.478385    0.064162
O      -0.132120    2.166663    0.051507
H       2.564689    2.031131   -0.156912
H       3.662108   -0.233753   -0.041957
H       2.539581   -2.443104    0.259860
H       0.015317   -2.564198    0.200460
H      -1.124515    2.030040    0.081030
15
Geometry 111 of 200
N      -1.684246   -0.379899    0.046107
O      -2.133419   -1.433287    0.047488
O      -2.329910    0.695439   -0.114550
C      -0.180401   -0.188499    0.076771
C       0.447358    0.965938    0.015880
C       1.815253    0.995985   -0.008285
C       2.498892   -0.138671   -0.007967
C       1.858263   -1.442406   -0.049792
C       0.513243   -1.437245   -0.020266
O      -0.189467    2.107068    0.027859
H       2.423504    2.074986    0.036647
H       3.605971   -0.213769    0.061242
H       2.526617   -2.289799    0.053370
H       0.057143   -2.296569   -0.227974
H      -1.242952    1.923644    0.003654
15
Geometry 112 of 200
N      -1.693293   -0.418341    0.006088
O      -2.241093   -1.446271    0.007087
O      -2.402807    0.679845   -0.047503
C      -0.228979   -0.246993    0.110438
C       0.440916    1.013660    0.064193
C       1.883320    0.986618   -0.019428
C       2.587040   -0.184176    0.035347
C       1.957315   -1.396280   -0.047146
C       0.546625   -1.416724   -0.037951
O      -0.174530    2.176829   -0.019611
H       2.481057    1.941398   -0.149648
H       3.545084   -0.105900   -0.051289
H       2.470925   -2.370838   -0.116620
H      -0.048908   -2.310968   -0.016037
H      -1.102351    1.984517   -0.057907
15
Geometry 113 of 200
N      -1.624063   -0.672234   -0.077116
O      -2.258069    0.079026   -0.898855
O      -1.928711   -0.715984    1.104416
C      -0.197732   -0.500071   -0.125876
C       0.210366    0.967412   -0.001467
C       1.674612    1.245768    0.086346
C       2.577614    0.169963    0.072168
C       2.124461   -1.173964   -0.083995
C       0.763586   -1.475336   -0.253814
O      -0.687960    1.825880    0.142787
H       2.355855    2.383705    0.472187
H       3.632969    0.366397    0.094831
H       2.757357   -1.860262   -0.378850
H       0.361561   -2.370926   -0.557528
H      -1.579129    1.395740   -0.025936
15
Geometry 114 of 200
N      -1.685070   -0.429531   -0.002024
O      -2.207892   -1.520720   -0.051715
O      -2.287387    0.745784    0.025830
C      -0.210934   -0.216153    0.067421
C       0.380540    1.007184   -0.020791
C       1.849890    1.020036   -0.087937
C       2.561221   -0.189534   -0.004856
C       1.885776   -1.418949    0.031757
C       0.541468   -1.440113    0.012404
O      -0.174499    2.196962    0.003637
H       2.250518    1.946791    0.332034
H       3.668512   -0.097326   -0.120273
H       2.442976   -2.369266    0.160094
H      -0.138474   -2.446780   -0.062520
H      -1.245071    1.980483    0.090212
15
Geometry 115 of 200
N      -1.650501   -0.381529   -0.015109
O      -2.173048   -1.526673    0.065110
O      -2.233281    0.701900   -0.040749
C      -0.262401   -0.271368    0.101887
C       0.376020    1.068614    0.000050
C       1.854509    0.996897   -0.069159
C       2.536262   -0.172597    0.066759
C       1.907093   -1.469475    0.032126
C       0.464293   -1.447750   -0.148719
O      -0.210267    2.243499    0.024607
H       2.417440    2.015924   -0.129380
H       3.710512   -0.095039    0.073903
H       2.352677   -2.329271    0.187399
H      -0.064065   -2.492363   -0.463981
H      -1.191576    1.997158   -0.022584
15
Geometry 116 of 200
N      -1.588507   -0.643047   -0.084329
O      -2.193069    0.091849   -0.902438
O      -1.856965   -0.816741    1.197576
C      -0.227767   -0.443615   -0.129055
C       0.202363    0.918024    0.002356
C       1.637931    1.208377    0.197330
C       2.523185    0.137648    0.094331
C       2.060713   -1.131715   -0.163468
C       0.724135   -1.377278   -0.282651
O      -0.636435    1.868093    0.024908
H       1.681013    2.122283    0.427241
H       3.510094    0.289809    0.207140
H       2.861240   -2.073557   -0.216722
H       0.307572   -2.349892   -0.266146
H      -1.421598    1.348381   -0.223828
15
Geometry 117 of 200
N      -1.588302   -0.351685    0.001006
O      -2.169608   -1.466436    0.060191
O      -2.328493    0.688793   -0.065308
C      -0.281211   -0.241509   -0.053104
C       0.432214    0.975315    0.009834
C       1.862135    0.994238    0.022501
C       2.595613   -0.187152   -0.016341
C       1.881231   -1.363049   -0.030443
C       0.453782   -1.435168    0.008537
O      -0.210564    2.131741    0.046034
H       2.153192    2.074823    0.026931
H       3.736247   -0.071615   -0.020650
H       2.372163   -2.331113    0.083718
H      -0.137895   -2.338174    0.067662
H      -1.070152    1.916388   -0.088251
15
Geometry 118 of 200
N      -1.668916   -0.674175   -0.055491
O      -2.146306    0.134554   -0.909841
O      -1.991993   -0.814652    1.148191
C      -0.228886   -0.466562   -0.054336
C       0.298069    0.907981    0.027827
C       1.603830    1.242873    0.193351
C       2.514408    0.217187    0.033205
C       2.111669   -1.145495   -0.166080
C       0.794476   -1.475120   -0.236375
O      -0.616682    1.832656    0.054244
H       2.054782    2.144484    0.107415
H       3.404895    0.615209   -0.108315
H       2.778335   -1.924561   -0.442852
H       0.160790   -2.323123   -0.314368
H      -1.473863    1.434345   -0.179786
15
Geometry 119 of 200
N      -1.631630   -0.316807    0.020012
O      -2.099997   -1.469178    0.116709
O      -2.361016    0.654188    0.021078
C      -0.193429   -0.220288   -0.035563
C       0.423621    1.035579   -0.028350
C       1.818140    0.988974    0.113557
C       2.518878   -0.237513    0.117544
C       1.878481   -1.439771   -0.030290
C       0.512892   -1.426751   -0.183980
O      -0.217673    2.179579   -0.124556
H       2.452720    1.757212    0.212188
H       3.570996   -0.005141    0.361123
H       2.387340   -2.391366   -0.376012
H      -0.158472   -2.419282   -0.390666
H      -1.212978    2.086341    0.058720
15
Geometry 120 of 200
N      -1.638153   -0.657127   -0.072524
O      -2.211194    0.178763   -0.951131
O      -1.923629   -0.841109    1.243972
C      -0.151343   -0.484676   -0.040698
C       0.230808    0.955719    0.102345
C       1.639314    1.255841    0.225863
C       2.581984    0.134691    0.061161
C       2.075035   -1.168919   -0.160167
C       0.738182   -1.424069   -0.285807
O      -0.682342    1.828725   -0.045638
H       1.908152    2.362525    0.312839
H       3.660490    0.352951   -0.011164
H       2.789963   -1.792518   -0.497501
H       0.566703   -2.577592   -0.613567
H      -1.602056    1.303018   -0.390179
15
Geometry 121 of 200
N      -1.641245   -0.663379   -0.105945
O      -2.354418    0.139126   -0.852739
O      -1.864524   -0.828970    1.103006
C      -0.133371   -0.415353   -0.188090
C       0.291152    0.988296    0.046660
C       1.686577    1.218841    0.167397
C       2.512795    0.145521    0.091699
C       2.122117   -1.141458   -0.132152
C       0.732845   -1.490537   -0.202498
O      -0.686925    1.856169    0.031031
H       2.106443    2.252309    0.294618
H       3.668503    0.396086    0.140409
H       2.972796   -2.061156   -0.185481
H       0.434641   -2.621447   -0.127505
H      -1.569243    1.447007   -0.085273
15
Geometry 122 of 200
N      -1.640495   -0.361083    0.018898
O      -2.124084   -1.471623   -0.030364
O      -2.350230    0.611694   -0.005156
C      -0.270465   -0.291327   -0.054423
C       0.449297    1.038745   -0.022528
C       1.821581    1.050278    0.022312
C       2.501652   -0.226790   -0.094306
C       1.861608   -1.426831    0.070569
C       0.483208   -1.393262    0.017038
O      -0.137796    2.227932    0.053425
H       2.444010    1.945673   -0.050727
H       3.565649   -0.248698   -0.047273
H       2.436989   -2.321945    0.099074
H       0.012188   -2.345308    0.346195
H      -1.079597    2.003753   -0.100675
15
Geometry 123 of 200
N      -1.555827   -0.618087   -0.071529
O      -2.154013    0.153466   -0.938714
O      -1.920913   -0.785265    1.143626
C      -0.201944   -0.518533   -0.076107
C       0.223506    0.925778    0.031904
C       1.590418    1.237746    0.130055
C       2.492993    0.161052    0.042633
C       2.103607   -1.141137   -0.201542
C       0.758664   -1.536646   -0.208920
O      -0.696929    1.860900    0.124228
H       1.955062    2.338416   -0.043231
H       3.536752    0.349488    0.238455
H       2.787407   -1.871147   -0.173988
H       0.419593   -2.412438   -0.288889
H      -1.407832    1.319011   -0.262724
15
Geometry 124 of 200
N      -1.687968   -0.706387   -0.146824
O      -2.169964    0.148361   -0.923899
O      -1.888515   -0.709155    1.199396
C      -0.182807   -0.511152   -0.066402
C       0.283150    0.862930    0.074208
C       1.597411    1.212269    0.274940
C       2.501778    0.235005   -0.009209
C       2.133009   -1.104225   -0.216343
C       0.723195   -1.501571   -0.173613
O      -0.671931    1.830185    0.022225
H       1.845895    2.162067    0.649993
H       3.568484    0.304665   -0.103289
H       2.952298   -1.811898   -0.488494
H       0.347398   -2.580888   -0.483287
H      -1.379832    1.471468   -0.353741
15
Geometry 125 of 200
N      -2.233774   -0.345448    0.266386
O      -2.674434   -0.580726   -0.922854
O      -2.823704    0.585989    1.004410
C      -0.804458   -0.258743    0.287098
C      -0.074983    0.992502    0.052245
C       1.271659    1.083058    0.017045
C       2.018320   -0.109193    0.045176
C       1.358739   -1.314554    0.050843
C      -0.028349   -1.345277    0.097827
O      -0.793144    2.049463   -0.320978
H       1.733149    2.123504   -0.143831
H       3.115894   -0.119570    0.102289
H       2.122336   -2.238847    0.020828
H      -0.486975   -2.302037   -0.019585
H      -1.729179    1.781294   -0.443375
15
Geometry 126 of 200
N      -1.533653   -0.740055   -0.130259
O      -2.274464    0.193268   -0.856008
O      -1.829398   -0.806043    1.149232
C      -0.152254   -0.427978   -0.217349
C       0.197666    0.964307    0.063106
C       1.576258    1.194252    0.159532
C       2.547236    0.195650    0.081248
C       2.028401   -1.166816   -0.080597
C       0.735020   -1.474995   -0.229467
O      -0.643308    1.863264    0.036369
H       1.891163    2.067711    0.335685
H       3.632298    0.386001   -0.129446
H       2.708511   -1.988579   -0.038514
H       0.296974   -2.473544   -0.286522
H      -1.458246    1.372943   -0.177256
15
Geometry 127 of 200
N      -1.698931   -0.402755    0.035125
O      -2.185313   -1.460602    0.031903
O      -2.265067    0.663717   -0.049355
C      -0.229391   -0.263644   -0.058356
C       0.458869    1.007570   -0.027519
C       1.856882    1.007969    0.007408
C       2.523343   -0.125081    0.038608
C       1.832809   -1.408490   -0.018342
C       0.509026   -1.422643   -0.005508
O      -0.175201    2.158859    0.056206
H       2.356587    1.940846   -0.045006
H       3.534628    0.029227   -0.211693
H       2.379868   -2.434614    0.016990
H      -0.057268   -2.401316    0.102312
H      -1.063782    2.021581   -0.203630
15
Geometry 128 of 200
N      -1.621914   -0.674796   -0.065741
O      -2.160082    0.105261   -0.984613
O      -2.014123   -0.713292    1.153922
C      -0.202284   -0.517994   -0.008252
C       0.269500    0.848409    0.134446
C       1.588414    1.280390    0.233013
C       2.552677    0.191009   -0.037595
C       2.079450   -1.080375   -0.256597
C       0.765423   -1.494886   -0.213058
O      -0.616483    1.807607    0.094925
H       1.941313    2.470876    0.303608
H       3.654299    0.349131   -0.272470
H       2.781463   -1.775561   -0.312909
H       0.540066   -2.679607   -0.231828
H      -1.412830    1.419392   -0.538034
15
Geometry 129 of 200
N      -2.164633   -0.280171    0.260536
O      -2.699960   -0.293107   -0.938014
O      -2.722812    0.432464    1.143923
C      -0.739969   -0.231610    0.324521
C      -0.094796    1.025353    0.084603
C       1.306770    1.075004    0.035935
C       2.072065   -0.099844    0.057179
C       1.342905   -1.314799    0.112817
C      -0.020047   -1.416538    0.215069
O      -0.843711    1.997408   -0.450625
H       1.752509    2.135801   -0.077988
H       3.173148   -0.129556    0.157239
H       1.996770   -2.283601   -0.026928
H      -0.542694   -2.195494   -0.200305
H      -1.742638    1.574749   -0.703408
15
Geometry 130 of 200
N      -1.639622   -0.320218   -0.065564
O      -2.186010   -1.437865    0.063850
O      -2.333225    0.615784   -0.046315
C      -0.172213   -0.206632    0.057690
C       0.407864    0.947071    0.045578
C       1.773956    0.983969    0.037809
C       2.503335   -0.183207   -0.015018
C       1.880440   -1.446065   -0.040634
C       0.568184   -1.398267   -0.017909
O      -0.155769    2.183053   -0.008351
H       2.275778    2.044155   -0.011581
H       3.622758    0.052311   -0.083342
H       2.348043   -2.443943    0.000557
H      -0.066292   -2.414226   -0.010110
H      -1.173259    1.993541    0.074377
15
Geometry 131 of 200
N      -1.671537   -0.344597    0.001766
O      -2.231977   -1.461708    0.031808
O      -2.291513    0.720471   -0.073527
C      -0.176088   -0.231188    0.000463
C       0.415234    0.987285   -0.074438
C       1.824481    0.976475    0.062977
C       2.602463   -0.195517   -0.066391
C       1.907519   -1.374726   -0.037289
C       0.525526   -1.465485    0.070550
O      -0.250089    2.125697    0.048354
H       2.344463    2.039156    0.114806
H       3.671391   -0.138536    0.005774
H       2.482543   -2.294444    0.014630
H       0.137088   -2.379483    0.074706
H      -1.264003    1.963111    0.183948
15
Geometry 132 of 200
N      -2.211771   -0.275751    0.263802
O      -2.697205   -0.213487   -0.965466
O      -2.571288    0.413129    1.174961
C      -0.669519   -0.236410    0.266430
C      -0.148718    1.023317    0.004303
C       1.265842    1.087641   -0.058494
C       2.034994   -0.093713    0.053901
C       1.387865   -1.330336    0.107663
C       0.079048   -1.436299    0.198863
O      -0.906229    1.969215   -0.417907
H       1.788496    2.117394   -0.149541
H       3.101927    0.060687   -0.077185
H       1.845551   -2.310659    0.129749
H      -0.391021   -2.380896   -0.007186
H      -1.815013    1.611939   -0.531160
15
Geometry 133 of 200
N      -2.199723   -0.293997    0.216100
O      -2.665051   -1.016372   -0.582493
O      -2.734182    0.681970    0.730278
C      -0.772728   -0.219496    0.285430
C      -0.095817    1.046439    0.041103
C       1.317304    1.058110   -0.025441
C       2.082768   -0.127493    0.022855
C       1.336256   -1.339086   -0.019274
C       0.000300   -1.344454    0.117398
O      -0.760142    2.099812   -0.401146
H       1.820959    2.041726    0.104015
H       3.088155   -0.016340    0.177387
H       1.879039   -2.279374   -0.162846
H      -0.669441   -2.176920   -0.033431
H      -1.628347    1.848070   -0.403550
15
Geometry 134 of 200
N      -1.609876   -0.383332    0.006383
O      -2.202101   -1.447400   -0.066353
O      -2.262791    0.661897    0.077044
C      -0.152255   -0.224413   -0.037557
C       0.456876    1.032669   -0.042238
C       1.823297    1.106796   -0.044178
C       2.490960   -0.246826    0.051732
C       1.861682   -1.445892    0.048665
C       0.504804   -1.421769    0.019027
O      -0.257713    2.140448    0.007006
H       2.335201    2.049419   -0.188675
H       3.643195   -0.308438   -0.086886
H       2.348394   -2.417416   -0.127947
H      -0.035733   -2.317673    0.090247
H      -1.180801    1.979448   -0.026889
15
Geometry 135 of 200
N      -1.613617   -0.699348   -0.086588
O      -2.275176    0.121420   -0.874565
O      -1.805151   -0.869082    1.160775
C      -0.170791   -0.442052   -0.168650
C       0.272288    0.983512    0.022822
C       1.618009    1.198016    0.186371
C       2.548000    0.196944    0.103160
C       2.004617   -1.145348   -0.105173
C       0.656263   -1.425876   -0.250126
O      -0.606773    1.887699   -0.012034
H       2.197894    2.267306    0.482987
H       3.600794    0.383733    0.256260
H       2.631947   -1.908927   -0.294974
H       0.330359   -2.482147   -0.420591
H      -1.587167    1.343147   -0.236341
15
Geometry 136 of 200
N      -1.647711   -0.363970   -0.022605
O      -2.200319   -1.484743    0.057178
O      -2.287350    0.723274   -0.024948
C      -0.227700   -0.288828    0.037707
C       0.440033    0.965691   -0.052779
C       1.843914    1.062212    0.024322
C       2.528488   -0.134487    0.045613
C       1.869872   -1.436465   -0.014027
C       0.489078   -1.548293   -0.064756
O      -0.177610    2.212927    0.032726
H       2.203147    2.192063   -0.311574
H       3.579816    0.028809    0.141499
H       2.593371   -2.231449    0.001583
H      -0.037418   -2.581435   -0.185751
H      -1.184731    1.935956   -0.081115
15
Geometry 137 of 200
N      -1.722717   -0.378560   -0.048022
O      -2.208777   -1.454735   -0.096204
O      -2.332983    0.695158    0.024145
C      -0.176285   -0.268577    0.045309
C       0.426263    0.988373   -0.006680
C       1.843911    1.053540   -0.049352
C       2.521469   -0.186334   -0.086137
C       1.888126   -1.467189    0.028495
C       0.578506   -1.484665    0.158544
O      -0.179690    2.210047    0.047470
H       2.311542    2.134183   -0.235043
H       3.578798   -0.059717   -0.131497
H       2.617713   -2.213614    0.025648
H       0.059395   -2.478773    0.185048
H      -1.098288    2.001495    0.231924
15
Geometry 138 of 200
N      -1.672713   -0.427092    0.015577
O      -2.244450   -1.436744    0.168973
O      -2.269794    0.668264   -0.138384
C      -0.217608   -0.239594   -0.086802
C       0.404522    0.975285    0.025019
C       1.859180    0.995977    0.078328
C       2.534536   -0.133087   -0.008743
C       1.863095   -1.385002   -0.062580
C       0.539047   -1.424597   -0.076589
O      -0.157233    2.134844    0.037887
H       2.417315    2.062416    0.199675
H       3.528886   -0.012424    0.259092
H       2.449841   -2.230335   -0.093059
H      -0.086015   -2.452478    0.025686
H      -1.147634    2.141761   -0.168111
15
Geometry 139 of 200
N      -1.655073   -0.335825    0.007741
O      -2.179146   -1.412521   -0.063727
O      -2.340429    0.657154    0.079600
C      -0.198674   -0.264917   -0.073811
C       0.433887    0.999112    0.001744
C       1.822692    0.982445   -0.073298
C       2.495433   -0.198554    0.027783
C       1.962404   -1.450589    0.040809
C       0.524135   -1.430247    0.018958
O      -0.223379    2.173628    0.014304
H       2.363730    1.980703   -0.004022
H       3.568601   -0.164523   -0.095501
H       2.495798   -2.230700    0.226793
H       0.154912   -2.363118    0.133528
H      -1.198956    2.059590   -0.120282
15
Geometry 140 of 200
N      -1.656847   -0.390694   -0.014344
O      -2.212540   -1.490346   -0.018703
O      -2.176886    0.749547    0.083644
C      -0.246916   -0.227120    0.003680
C       0.364958    0.987011   -0.024556
C       1.796769    1.047686    0.012391
C       2.553264   -0.194028    0.063605
C       1.893119   -1.420561   -0.027874
C       0.525301   -1.465937    0.000242
O      -0.253438    2.152660   -0.051817
H       2.434966    2.075203   -0.209453
H       3.716434   -0.264056    0.259672
H       2.594456   -2.437836   -0.037114
H       0.002998   -2.259859   -0.310685
H      -1.130668    1.949343   -0.055837
15
Geometry 141 of 200
N      -1.674715   -0.375483   -0.074281
O      -2.124076   -1.463207    0.101323
O      -2.232644    0.729107   -0.124876
C      -0.235448   -0.286090   -0.034116
C       0.402077    0.993332    0.079695
C       1.842902    0.990551   -0.057276
C       2.481070   -0.144124   -0.019113
C       1.883589   -1.395940    0.005801
C       0.500740   -1.479776    0.031964
O      -0.226836    2.176017    0.094612
H       2.172775    1.907768   -0.214950
H       3.698017   -0.254724   -0.164158
H       2.316078   -2.363305   -0.043082
H       0.071031   -2.519365   -0.006849
H      -1.179225    2.169102    0.307103
15
Geometry 142 of 200
N      -1.545702   -0.667394   -0.045622
O      -2.208817    0.102762   -0.923213
O      -1.991186   -0.788217    1.180038
C      -0.216779   -0.444916   -0.101495
C       0.299509    0.903582    0.043544
C       1.569125    1.135841    0.131241
C       2.521377    0.193987    0.053563
C       2.116924   -1.100381   -0.112579
C       0.726704   -1.507769   -0.294470
O      -0.625526    1.913159    0.072148
H       1.913469    2.245070    0.245264
H       3.609209    0.588640    0.055310
H       2.891329   -1.713038   -0.312524
H       0.418952   -2.550121   -0.658516
H      -1.410380    1.308246   -0.177244
15
Geometry 143 of 200
N      -1.667996   -0.333063   -0.003507
O      -2.163147   -1.431582   -0.023662
O      -2.430968    0.705700    0.046510
C      -0.264941   -0.321377    0.073879
C       0.421896    0.993177    0.051791
C       1.829432    0.964260   -0.018886
C       2.650183   -0.163768   -0.015301
C       1.873537   -1.371102    0.009064
C       0.571229   -1.412323   -0.056639
O      -0.165996    2.099969   -0.085917
H       2.299700    2.059773    0.149154
H       3.828058   -0.068079    0.296899
H       2.288144   -2.302115    0.100047
H      -0.037690   -2.264589   -0.201641
H      -1.045044    1.928515    0.167410
15
Geometry 144 of 200
N      -1.616589   -0.587693   -0.066539
O      -2.282291    0.150833   -0.842076
O      -1.772495   -0.754222    1.130127
C      -0.163204   -0.476665   -0.158835
C       0.219880    0.956718    0.062750
C       1.549067    1.219522    0.147227
C       2.452212    0.169788    0.193591
C       2.132952   -1.141954   -0.133600
C       0.700124   -1.514548   -0.306439
O      -0.609285    1.750817   -0.010263
H       2.000541    2.209864    0.324209
H       3.523072    0.510725    0.203788
H       2.931641   -1.748421   -0.250009
H       0.392025   -2.523670   -0.706042
H      -1.509477    1.348369   -0.350222
15
Geometry 145 of 200
N      -1.673512   -0.402722   -0.034238
O      -2.183110   -1.440117    0.025958
O      -2.247670    0.669110    0.078284
C      -0.157432   -0.255702   -0.113733
C       0.401901    0.995694   -0.023904
C       1.797692    1.035531    0.079189
C       2.556891   -0.143247    0.022479
C       1.875723   -1.404029    0.002895
C       0.462798   -1.477676   -0.042140
O      -0.207036    2.162596   -0.028423
H       2.588298    1.815872   -0.160446
H       3.539071   -0.212451    0.051159
H       2.322143   -2.284840    0.278290
H      -0.124655   -2.342472    0.029861
H      -1.131317    2.195551   -0.015237
15
Geometry 146 of 200
N      -1.646151   -0.371579    0.025501
O      -2.183292   -1.418426   -0.035814
O      -2.284076    0.692886    0.005428
C      -0.233629   -0.307495    0.099802
C       0.432875    1.006504   -0.020303
C       1.893358    1.059084   -0.098665
C       2.542093   -0.181169    0.076528
C       1.885709   -1.378924   -0.017385
C       0.474119   -1.575774   -0.033221
O      -0.236347    2.176173    0.010260
H       2.325502    1.960641    0.039481
H       3.645631    0.060074    0.032187
H       2.468337   -2.223855   -0.005688
H      -0.025766   -2.456908   -0.077889
H      -1.238852    2.087185   -0.135685
15
Geometry 147 of 200
N      -1.498462   -0.578635   -0.093482
O      -2.222610    0.103326   -0.872627
O      -1.800197   -0.777349    1.163650
C      -0.273161   -0.480952   -0.174638
C       0.237009    0.856800   -0.080236
C       1.596954    1.225953    0.216049
C       2.447813    0.168056    0.098749
C       2.075299   -1.211706   -0.193624
C       0.763412   -1.483573   -0.208379
O      -0.698704    1.898954    0.055349
H       1.811536    2.266867    0.650985
H       3.475166    0.318874    0.430303
H       2.863661   -1.893192   -0.340839
H       0.493582   -2.442883   -0.295784
H      -1.474188    1.603245   -0.270390
15
Geometry 148 of 200
N      -1.623089   -0.390546    0.084732
O      -2.137431   -1.462482    0.053957
O      -2.311118    0.720975   -0.121323
C      -0.183412   -0.260962    0.016827
C       0.437673    0.963153    0.030729
C       1.750759    1.048938   -0.014743
C       2.492241   -0.146972   -0.022510
C       1.818310   -1.422700    0.040072
C       0.516488   -1.450936   -0.108176
O      -0.145456    2.143543    0.026412
H       2.305703    1.943795    0.174254
H       3.634839   -0.113785   -0.160592
H       2.346999   -2.280496    0.223776
H      -0.020631   -2.365737   -0.185714
H      -1.230631    1.964320    0.127803
15
Geometry 149 of 200
N      -1.566490   -0.645142   -0.109625
O      -2.276640    0.131236   -0.848645
O      -1.843750   -0.810302    1.108070
C      -0.164675   -0.397133   -0.116229
C       0.238098    0.928536    0.082269
C       1.589836    1.189547    0.186355
C       2.479034    0.152022    0.059546
C       2.119315   -1.090882   -0.121296
C       0.732519   -1.468014   -0.230154
O      -0.634880    1.826967   -0.010727
H       1.792057    2.225016    0.383704
H       3.544623    0.002182    0.094309
H       2.972614   -1.935482   -0.381162
H       0.137357   -2.617429   -0.263303
H      -1.489626    1.520134   -0.205762
15
Geometry 150 of 200
N      -1.702510   -0.349987   -0.036341
O      -2.161765   -1.483343    0.016636
O      -2.416614    0.670300    0.018460
C      -0.166541   -0.237544   -0.007661
C       0.456468    0.989864   -0.032577
C       1.822270    1.018624    0.015122
C       2.544707   -0.187974   -0.003263
C       1.880737   -1.451283   -0.021987
C       0.574619   -1.384575   -0.019641
O      -0.175080    2.195859    0.001910
H       2.372085    1.889425    0.209212
H       3.578634   -0.508010   -0.004108
H       2.532847   -2.387608    0.237142
H       0.000336   -2.478596    0.231773
H      -1.151605    2.149267    0.056783
15
Geometry 151 of 200
N      -1.603369   -0.587619   -0.096169
O      -2.312308    0.026881   -0.919468
O      -1.838681   -0.757179    1.143245
C      -0.188235   -0.465818   -0.138838
C       0.247777    0.856101    0.041507
C       1.625793    1.231930    0.212835
C       2.512602    0.155053    0.127323
C       2.040230   -1.118669   -0.243143
C       0.735722   -1.470639   -0.196592
O      -0.591543    1.895577    0.039838
H       1.860130    2.058361    0.598926
H       3.601529    0.663270    0.020519
H       2.740339   -1.894448   -0.201701
H       0.565652   -2.525349   -0.417269
H      -1.446760    1.400196   -0.061598
15
Geometry 152 of 200
N      -2.166794   -0.276483    0.230956
O      -2.691204   -0.159905   -0.969638
O      -2.525038    0.466211    1.162770
C      -0.742178   -0.262125    0.265435
C      -0.172680    1.008102   -0.041828
C       1.282497    1.081083   -0.056642
C       2.011145   -0.088352    0.101960
C       1.376676   -1.266645    0.146471
C      -0.021134   -1.405765    0.188798
O      -0.897883    2.018178   -0.483888
H       1.721995    2.082957   -0.130004
H       3.049966   -0.102612    0.054702
H       2.066715   -2.159473    0.030369
H      -0.364510   -2.540224    0.228092
H      -1.893504    1.588379   -0.652103
15
Geometry 153 of 200
N      -1.620316   -0.397262   -0.044169
O      -2.172580   -1.549351   -0.020676
O      -2.344350    0.657622    0.021741
C      -0.220789   -0.228453   -0.005142
C       0.433260    1.046493    0.003219
C       1.818436    0.968348   -0.053075
C       2.486120   -0.125569   -0.062279
C       1.837122   -1.399346    0.064325
C       0.459013   -1.425393    0.004282
O      -0.070219    2.222962    0.041389
H       2.249128    1.940019   -0.138810
H       3.584559   -0.121602    0.255487
H       2.310628   -2.397152    0.108263
H       0.076310   -2.421102    0.199216
H      -1.124076    2.047382    0.141975
15
Geometry 154 of 200
N      -1.579711   -0.636061   -0.110439
O      -2.261049    0.119165   -0.888568
O      -1.937256   -0.818607    1.134854
C      -0.141289   -0.447866   -0.087261
C       0.257352    0.860936    0.115178
C       1.582650    1.261861    0.176061
C       2.543020    0.208749    0.041472
C       2.104820   -1.164397   -0.129400
C       0.716154   -1.450756   -0.204646
O      -0.625278    1.839545    0.018450
H       2.034892    2.211746    0.143023
H       3.595724    0.427780   -0.023487
H       2.794979   -2.078638   -0.564138
H       0.337826   -2.503664   -0.458481
H      -1.474198    1.681875   -0.238418
15
Geometry 155 of 200
N      -1.636293   -0.339692   -0.004779
O      -2.221044   -1.461437   -0.076518
O      -2.286619    0.698373    0.091182
C      -0.285316   -0.298424    0.039502
C       0.473675    0.900800    0.002464
C       1.841410    1.001198    0.035299
C       2.535726   -0.127637    0.028618
C       1.862810   -1.333714   -0.069946
C       0.532514   -1.455432    0.066174
O      -0.194754    2.162358   -0.082406
H       2.249277    2.157473    0.051939
H       3.745220   -0.225631   -0.084235
H       2.439483   -2.327654   -0.001514
H       0.089035   -2.463911    0.043443
H      -1.165126    1.908346   -0.098810
15
Geometry 156 of 200
N      -2.115089   -0.268803    0.239350
O      -2.579421   -1.026657   -0.562399
O      -2.767973    0.675593    0.729243
C      -0.706483   -0.199561    0.280543
C      -0.055443    1.078959   -0.013631
C       1.348067    1.006687   -0.024814
C       2.084047   -0.139231    0.076832
C       1.347601   -1.335410    0.041661
C       0.025338   -1.353352    0.135355
O      -0.800067    2.116367   -0.331112
H       1.738996    2.023885    0.137594
H       3.123914   -0.164251    0.195959
H       1.929056   -2.216826   -0.271799
H      -0.662497   -2.099750   -0.137244
H      -1.767003    1.919764   -0.511086
15
Geometry 157 of 200
N      -1.590683   -0.621099   -0.073570
O      -2.184778    0.178401   -0.895735
O      -1.921857   -0.782932    1.150829
C      -0.175936   -0.479182   -0.039896
C       0.191459    0.854493    0.029080
C       1.622560    1.219188    0.128670
C       2.531812    0.221865    0.094965
C       2.100229   -1.133906   -0.199108
C       0.746631   -1.511747   -0.262400
O      -0.669075    1.820393    0.067556
H       1.857044    2.234769    0.142589
H       3.572516    0.421709    0.269050
H       2.920994   -1.921263   -0.317078
H       0.541242   -2.705719   -0.315789
H      -1.619015    1.505063   -0.531118
15
Geometry 158 of 200
N      -2.171877   -0.281389    0.241086
O      -2.646259   -0.069086   -0.956952
O      -2.584231    0.436342    1.260096
C      -0.717554   -0.286572    0.271058
C      -0.097093    0.972150   -0.020423
C       1.291831    1.040993   -0.099222
C       2.074281   -0.065163    0.032990
C       1.357258   -1.357193    0.005837
C      -0.000888   -1.440539    0.072874
O      -0.846816    1.941160   -0.498606
H       1.698657    2.011567    0.094599
H       3.067822   -0.040079    0.151369
H       1.955311   -2.226380    0.303535
H      -0.626179   -2.296009   -0.300899
H      -1.765358    1.544132   -0.706941
15
Geometry 159 of 200
N      -1.570120   -0.719729   -0.140444
O      -2.298365    0.210998   -0.838334
O      -1.745049   -0.779653    1.175716
C      -0.219567   -0.511869   -0.123648
C       0.213390    0.878708   -0.035145
C       1.558697    1.213042    0.174111
C       2.523331    0.226215    0.109825
C       2.086399   -1.142847   -0.117781
C       0.703864   -1.396305   -0.288396
O      -0.607324    1.830637   -0.013154
H       1.788086    2.200544    0.896116
H       3.619264    0.210596    0.522410
H       2.690223   -2.217705   -0.132059
H       0.338048   -2.406687   -0.325630
H      -1.457490    1.316004   -0.381317
15
Geometry 160 of 200
N      -1.639889   -0.703898   -0.127628
O      -2.379442    0.064570   -0.851229
O      -1.868379   -0.784206    1.166129
C      -0.220489   -0.414886   -0.191724
C       0.283548    0.905548   -0.012758
C       1.650905    1.199397    0.172984
C       2.562031    0.195570    0.157512
C       2.122496   -1.145501   -0.151496
C       0.738097   -1.419529   -0.267534
O      -0.578204    1.906225    0.031451
H       1.882746    2.267860    0.506444
H       3.690909    0.372194    0.387468
H       2.834640   -1.990492   -0.260044
H       0.393363   -2.597894   -0.353866
H      -1.443584    1.485773   -0.089803
15
Geometry 161 of 200
N      -2.166894   -0.257141    0.292770
O      -2.717003   -0.545478   -0.815293
O      -2.706147    0.618829    0.993443
C      -0.740612   -0.261115    0.293028
C      -0.122341    1.050337    0.018391
C       1.263406    1.097386   -0.025030
C       1.975445   -0.082272    0.033718
C       1.358494   -1.301096    0.074788
C      -0.039053   -1.419837    0.139214
O      -0.887477    2.001892   -0.480239
H       1.935843    2.055279    0.023250
H       3.100962    0.089655    0.117493
H       1.962499   -2.176108   -0.116409
H      -0.329608   -2.518133   -0.021258
H      -1.852964    1.624229   -0.643021
15
Geometry 162 of 200
N      -1.625499   -0.650024   -0.062343
O      -2.239762    0.103998   -0.955713
O      -1.840862   -0.690416    1.142346
C      -0.138580   -0.430280   -0.128837
C       0.210676    0.956180    0.136755
C       1.581532    1.222390    0.200338
C       2.450122    0.125535    0.030116
C       2.109958   -1.212943   -0.169864
C       0.797310   -1.517610   -0.284781
O      -0.667936    1.818319    0.069686
H       1.954895    2.203481    0.469044
H       3.318217    0.628980   -0.038126
H       3.066430   -1.805540   -0.210992
H       0.516105   -2.417161   -0.133085
H      -1.621962    1.445567   -0.224213
15
Geometry 163 of 200
N      -1.675655   -0.362781   -0.062158
O      -2.159161   -1.463114    0.043681
O      -2.290497    0.697635   -0.056881
C      -0.267942   -0.248390    0.008184
C       0.408361    0.987479    0.027945
C       1.843494    0.949161   -0.008136
C       2.563696   -0.171113   -0.003763
C       1.865098   -1.342906   -0.025665
C       0.523440   -1.439586    0.061864
O      -0.187518    2.157282    0.050784
H       2.112200    2.075976   -0.081329
H       3.581611   -0.226573   -0.346439
H       2.554194   -2.309746   -0.010605
H      -0.025704   -2.524952   -0.017740
H      -1.010891    1.840932    0.049200
15
Geometry 164 of 200
N      -1.674495   -0.336254    0.030461
O      -2.140448   -1.435890   -0.082604
O      -2.344035    0.691961    0.032765
C      -0.219710   -0.250426    0.078013
C       0.456265    1.006496    0.018682
C       1.831222    0.932962    0.081083
C       2.475154   -0.190876   -0.076641
C       1.911562   -1.409552    0.034934
C       0.574718   -1.385901    0.043569
O      -0.223124    2.129979   -0.063136
H       2.369656    1.940331   -0.104336
H       3.552867   -0.098417   -0.261787
H       2.393058   -2.332360   -0.150751
H       0.077225   -2.327044   -0.112271
H      -1.155876    1.806315   -0.092061
15
Geometry 165 of 200
N      -1.671674   -0.642921   -0.026399
O      -2.277537    0.156951   -0.930135
O      -1.993641   -0.794531    1.157428
C      -0.152993   -0.411893   -0.051079
C       0.269770    0.831357    0.093952
C       1.638561    1.150153    0.162676
C       2.612187    0.194636    0.065699
C       2.153838   -1.107221   -0.246517
C       0.778324   -1.370305   -0.203843
O      -0.657646    1.790742   -0.003968
H       2.010002    2.214062    0.300488
H       3.574466    0.426167    0.291620
H       2.746955   -1.853251   -0.324066
H       0.457530   -2.432033   -0.510410
H      -1.450912    1.121921   -0.293507
15
Geometry 166 of 200
N      -1.638617   -0.639846   -0.111545
O      -2.226527    0.138618   -0.916652
O      -1.876882   -0.681157    1.244201
C      -0.131538   -0.544311   -0.101826
C       0.246054    0.849677    0.133248
C       1.601517    1.184966    0.235247
C       2.464895    0.237639    0.109672
C       2.121788   -1.103321   -0.211758
C       0.735759   -1.513693   -0.340670
O      -0.646209    1.795561   -0.012026
H       1.803499    2.296654    0.180135
H       3.468317    0.477229    0.366023
H       2.935035   -1.877751   -0.438277
H       0.434493   -2.326211   -0.535021
H      -1.397424    1.437161   -0.428658
15
Geometry 167 of 200
N      -1.651593   -0.368566    0.007939
O      -2.123001   -1.458011    0.032943
O      -2.281594    0.729457    0.001134
C      -0.187716   -0.198338    0.021958
C       0.437548    0.969894    0.023397
C       1.772588    0.961957    0.014926
C       2.535121   -0.202732    0.029972
C       1.919962   -1.425702   -0.011805
C       0.477342   -1.403726   -0.113941
O      -0.244021    2.120899   -0.031971
H       2.136121    2.035482   -0.020509
H       3.619984   -0.110712    0.173573
H       2.560042   -2.267952    0.144997
H      -0.309871   -2.225526    0.023950
H      -1.149581    1.932131   -0.062207
15
Geometry 168 of 200
N      -1.660982   -0.373502   -0.047697
O      -2.144565   -1.434919   -0.011607
O      -2.305787    0.696414   -0.009303
C      -0.264788   -0.266586    0.041676
C       0.473543    0.957398   -0.008695
C       1.815590    0.993329   -0.106840
C       2.567421   -0.201529    0.039946
C       1.885046   -1.383312    0.045813
C       0.500440   -1.450414   -0.003252
O      -0.242600    2.192820    0.085241
H       2.395406    1.979984   -0.289199
H       3.655413   -0.051600   -0.172010
H       2.409302   -2.297707   -0.050863
H       0.017404   -2.385910    0.137123
H      -1.082927    1.848197   -0.058771
15
Geometry 169 of 200
N      -1.540189   -0.612942   -0.059493
O      -2.259144    0.040746   -0.960325
O      -1.884519   -0.578768    1.164880
C      -0.169301   -0.545547   -0.149228
C       0.172349    0.912899    0.081773
C       1.595614    1.202853    0.193072
C       2.529486    0.249767    0.095409
C       2.118739   -1.176467   -0.183962
C       0.781770   -1.465340   -0.374009
O      -0.672695    1.765757    0.127666
H       2.023609    2.091049    0.238140
H       3.503357    0.306747    0.339717
H       2.650236   -2.084388   -0.261786
H       0.343238   -2.377087   -0.244572
H      -1.458052    1.357221   -0.056471
15
Geometry 170 of 200
N      -1.717746   -0.328808    0.026167
O      -2.183675   -1.448344    0.003747
O      -2.313458    0.689628   -0.052558
C      -0.160882   -0.228900   -0.041446
C       0.430385    0.979270   -0.023278
C       1.830191    0.984108    0.032275
C       2.509295   -0.141318   -0.074249
C       1.900609   -1.381425    0.000698
C       0.520092   -1.492299    0.063187
O      -0.194950    2.130815    0.073868
H       2.457751    1.755578   -0.090465
H       3.651696    0.139304   -0.107082
H       2.474309   -2.334010    0.230130
H       0.047218   -2.570727    0.022058
H      -1.121373    1.856235   -0.193614
15
Geometry 171 of 200
N      -1.634428   -0.344057   -0.077840
O      -2.144305   -1.479668    0.095411
O      -2.319806    0.640729    0.008089
C      -0.264048   -0.229522   -0.049481
C       0.413286    1.014106   -0.087685
C       1.803749    0.931255   -0.002455
C       2.550207   -0.201036    0.088954
C       1.889284   -1.401768   -0.095357
C       0.499771   -1.378324    0.016761
O      -0.171732    2.201081    0.017474
H       2.314053    1.935354    0.214719
H       3.507020   -0.183251    0.367276
H       2.324794   -2.317564   -0.072409
H       0.162675   -2.454936   -0.070044
H      -1.151133    2.066924    0.144261
15
Geometry 172 of 200
N      -1.569152   -0.711977   -0.068449
O      -2.160207    0.174862   -0.903178
O      -1.861646   -0.727707    1.169134
C      -0.130063   -0.508661   -0.118666
C       0.193074    0.905765   -0.001101
C       1.535748    1.198107    0.252559
C       2.439519    0.161872    0.027475
C       2.047230   -1.124547   -0.211347
C       0.778136   -1.457592   -0.221124
O      -0.644725    1.840394    0.027946
H       1.949257    2.071793    0.498786
H       3.438844    0.541157    0.262001
H       2.908552   -1.953440   -0.345219
H       0.285925   -2.594993   -0.295386
H      -1.608471    1.546099   -0.206776
15
Geometry 173 of 200
N      -2.154518   -0.265347    0.263998
O      -2.717260   -1.024905   -0.552965
O      -2.808975    0.730104    0.609866
C      -0.726468   -0.204717    0.242357
C      -0.115004    1.018514    0.059334
C       1.269573    1.037212   -0.007278
C       2.064999   -0.091306    0.017702
C       1.449369   -1.291208    0.049628
C       0.020970   -1.404758    0.070182
O      -0.744229    2.077660   -0.300319
H       1.729688    1.981419    0.311597
H       3.103190    0.066531    0.021099
H       1.980609   -2.191934   -0.166499
H      -0.586527   -2.188548   -0.328133
H      -1.746238    1.705824   -0.374815
15
Geometry 174 of 200
N      -1.633330   -0.610239   -0.022715
O      -2.219540    0.123642   -0.869042
O      -1.940590   -0.846093    1.163092
C      -0.156305   -0.489459   -0.056553
C       0.286140    0.882967    0.002166
C       1.689923    1.224614    0.217728
C       2.508130    0.172380    0.100539
C       2.115312   -1.127299   -0.218611
C       0.722518   -1.448342   -0.287392
O      -0.666450    1.862882   -0.061843
H       1.774964    2.355179    0.615345
H       3.544951    0.268565    0.358125
H       2.695460   -1.716171   -0.404721
H       0.329421   -2.366129   -0.399364
H      -1.593634    1.407515   -0.237415
15
Geometry 175 of 200
N      -1.626630   -0.348958   -0.023655
O      -2.169954   -1.413620    0.065064
O      -2.287214    0.728060   -0.061978
C      -0.224115   -0.314226   -0.049897
C       0.409756    0.975888    0.106538
C       1.812552    1.032195   -0.015287
C       2.563415   -0.140445   -0.038849
C       1.878081   -1.395475   -0.036512
C       0.517449   -1.483136    0.049853
O      -0.211985    2.119292   -0.007092
H       2.134442    2.074097    0.171346
H       3.667532   -0.162510    0.151479
H       2.222645   -2.394491   -0.072824
H       0.058664   -2.479042   -0.155564
H      -1.325201    1.765324    0.134071
15
Geometry 176 of 200
N      -1.649762   -0.641716   -0.033139
O      -2.247368    0.155930   -0.912876
O      -1.924852   -0.850559    1.190581
C      -0.191905   -0.459001   -0.035870
C       0.191127    0.946802    0.027055
C       1.653998    1.208944    0.252005
C       2.536756    0.225416    0.112748
C       2.097113   -1.149262   -0.251000
C       0.803434   -1.484222   -0.280662
O      -0.592665    1.834847   -0.068662
H       1.754468    2.078654    0.518115
H       3.625666    0.410983    0.145220
H       2.829771   -2.022139   -0.406641
H       0.334552   -2.426096   -0.220657
H      -1.593862    1.561117   -0.297837
15
Geometry 177 of 200
N      -1.682248   -0.357936    0.015750
O      -2.151651   -1.457166    0.035045
O      -2.300303    0.697130    0.023810
C      -0.228707   -0.220368    0.017428
C       0.410035    1.000710   -0.017039
C       1.835491    0.986509    0.050268
C       2.559497   -0.180540    0.071370
C       1.942132   -1.450507   -0.014120
C       0.510881   -1.443007   -0.137394
O      -0.250510    2.193744   -0.069433
H       2.403668    1.864069   -0.007997
H       3.579228   -0.295102    0.117518
H       2.427191   -2.348640    0.056955
H      -0.024540   -2.449438   -0.073816
H      -1.157189    1.866437    0.120014
15
Geometry 178 of 200
N      -1.577183   -0.652593   -0.105227
O      -2.340027    0.155398   -0.897371
O      -1.848843   -0.762374    1.160698
C      -0.145755   -0.526107   -0.184510
C       0.222305    0.882460    0.046413
C       1.594889    1.191115    0.204281
C       2.596104    0.232556    0.103085
C       2.129078   -1.163304   -0.181848
C       0.692786   -1.492807   -0.186701
O      -0.642555    1.875400    0.023506
H       1.804806    2.315985    0.557346
H       3.554553    0.347891    0.014709
H       2.876336   -1.927222   -0.138018
H       0.441398   -2.481123   -0.547009
H      -1.581728    1.387087   -0.154436
15
Geometry 179 of 200
N      -1.606539   -0.357609    0.029454
O      -2.201582   -1.461938    0.012673
O      -2.280049    0.669533   -0.052862
C      -0.149626   -0.249694   -0.064824
C       0.470067    1.010048   -0.003747
C       1.830385    1.011364   -0.063197
C       2.461516   -0.162013   -0.033919
C       1.852002   -1.390540    0.069009
C       0.460059   -1.484461    0.020428
O      -0.205344    2.149983    0.099706
H       2.318122    1.931420   -0.076026
H       3.515257   -0.126524   -0.061683
H       2.563522   -2.173934    0.060649
H       0.055223   -2.177530   -0.091378
H      -1.236324    1.833573   -0.194215
15
Geometry 180 of 200
N      -1.624148   -0.357829   -0.019503
O      -2.143616   -1.487671   -0.000880
O      -2.277060    0.708185    0.107483
C      -0.202693   -0.217548   -0.145584
C       0.478660    0.951300   -0.027274
C       1.842195    1.019854    0.027038
C       2.515423   -0.142742    0.049399
C       1.832302   -1.402315   -0.004469
C       0.466619   -1.499818    0.001373
O      -0.232144    2.158336   -0.025930
H       2.223385    2.008762    0.033190
H       3.566687   -0.030321    0.045129
H       2.385709   -2.327972    0.255424
H      -0.248995   -2.296646   -0.012070
H      -1.078110    1.909764   -0.141277
15
Geometry 181 of 200
N      -1.673073   -0.305868    0.022722
O      -2.178420   -1.392146   -0.007879
O      -2.303987    0.692961   -0.008636
C      -0.186028   -0.288514   -0.038596
C       0.417679    0.960676    0.012695
C       1.793754    1.100155   -0.031604
C       2.482337   -0.169236   -0.000110
C       1.946298   -1.474949    0.007654
C       0.553845   -1.463186    0.023380
O      -0.217942    2.097914    0.036828
H       2.271716    1.916658   -0.297708
H       3.641528   -0.144400    0.146519
H       2.580100   -2.384146    0.116389
H      -0.008102   -2.476476   -0.151717
H      -1.197800    1.966323   -0.060011
15
Geometry 182 of 200
N      -1.657238   -0.681164   -0.117726
O      -2.349761    0.194078   -0.884857
O      -1.833123   -0.838007    1.134963
C      -0.167073   -0.500202   -0.149593
C       0.275374    0.897596    0.067288
C       1.618208    1.228526    0.103926
C       2.603516    0.219065    0.051428
C       2.062965   -1.136174   -0.053072
C       0.741515   -1.445982   -0.238676
O      -0.618046    1.832904    0.062706
H       1.923514    2.208253    0.294215
H       3.590120    0.535661    0.252193
H       2.791606   -2.109261   -0.037044
H       0.413462   -2.437234   -0.325651
H      -1.442300    1.579214   -0.406869
15
Geometry 183 of 200
N      -1.689675   -0.664973   -0.095744
O      -2.237487    0.137243   -0.848805
O      -1.882915   -0.773022    1.143042
C      -0.132060   -0.490258   -0.053855
C       0.244944    0.919340    0.094143
C       1.566100    1.202051    0.173104
C       2.534281    0.219658    0.115411
C       2.080101   -1.132467   -0.154422
C       0.775891   -1.510024   -0.316017
O      -0.599668    1.850218   -0.014030
H       1.845433    2.198592    0.281316
H       3.547826    0.409848    0.001951
H       2.837176   -1.879333   -0.197194
H       0.358439   -2.326161   -0.617841
H      -1.540179    1.363322   -0.374674
15
Geometry 184 of 200
N      -1.673960   -0.430298    0.026867
O      -2.183453   -1.482555   -0.119479
O      -2.367441    0.706467    0.094714
C      -0.252282   -0.239490   -0.006849
C       0.432038    1.016855   -0.051705
C       1.868922    1.060464   -0.050633
C       2.543109   -0.222995    0.023918
C       1.924061   -1.475150    0.059061
C       0.487540   -1.414388    0.043071
O      -0.155463    2.202941    0.001506
H       2.342412    2.047987   -0.216974
H       3.630314   -0.048884   -0.159352
H       2.671698   -2.263768    0.048053
H       0.046899   -2.276038    0.098356
H      -1.269166    1.996783    0.040187
15
Geometry 185 of 200
N      -2.218514   -0.280602    0.281164
O      -2.578172   -0.090960   -0.904911
O      -2.666844    0.384891    1.254403
C      -0.673986   -0.215773    0.374802
C      -0.050413    1.017393    0.148702
C       1.297062    1.064160    0.007965
C       2.011023   -0.118192    0.169630
C       1.329164   -1.308013    0.089132
C      -0.029817   -1.488174    0.171135
O      -0.807030    1.991803   -0.489263
H       1.660444    2.094813    0.008990
H       3.065113   -0.031594   -0.102620
H       1.946324   -2.213773   -0.060931
H      -0.588189   -2.238543   -0.203918
H      -1.716816    1.482255   -0.738833
15
Geometry 186 of 200
N      -2.245074   -0.264850    0.224671
O      -2.793216   -1.138298   -0.461798
O      -2.785911    0.763205    0.641982
C      -0.788053   -0.247554    0.214679
C      -0.085602    1.050563   -0.042377
C       1.338469    1.114004   -0.069859
C       2.011087   -0.051861    0.022724
C       1.344426   -1.335205   -0.003462
C      -0.011607   -1.351741    0.112588
O      -0.781735    2.168739   -0.263588
H       1.852754    1.940455    0.131915
H       3.177731   -0.081901    0.025061
H       2.003450   -2.201333   -0.182246
H      -0.610907   -2.237239   -0.085647
H      -1.724765    1.935721   -0.337615
15
Geometry 187 of 200
N      -1.721712   -0.330690   -0.049066
O      -2.207361   -1.446276   -0.049344
O      -2.339001    0.707693    0.139725
C      -0.274411   -0.308508   -0.083024
C       0.407428    0.922599   -0.055266
C       1.843143    1.011341   -0.050066
C       2.594101   -0.130106    0.047203
C       1.890037   -1.336925   -0.007790
C       0.546220   -1.465876    0.033002
O      -0.135672    2.103559   -0.012108
H       2.318202    1.943554    0.148449
H       3.752539   -0.001790    0.152419
H       2.644878   -2.233183    0.371162
H       0.055530   -2.466309    0.135534
H      -1.127555    2.129696    0.006803
15
Geometry 188 of 200
N      -1.605590   -0.721988   -0.118576
O      -2.267076    0.224277   -0.898970
O      -1.846818   -0.763716    1.189890
C      -0.197622   -0.461249   -0.178328
C       0.289118    0.909811    0.058398
C       1.608937    1.245214    0.201542
C       2.514371    0.204457    0.020147
C       2.086319   -1.138838   -0.117045
C       0.726773   -1.456885   -0.202406
O      -0.664256    1.756193    0.046548
H       1.932967    2.255241    0.430690
H       3.577134    0.268164    0.218643
H       2.856172   -1.971714   -0.316425
H       0.636853   -2.506951   -0.340170
H      -1.518341    1.363132   -0.609900
15
Geometry 189 of 200
N      -1.638027   -0.660588   -0.147308
O      -2.300106    0.124697   -0.854524
O      -1.835911   -0.814226    1.130925
C      -0.237533   -0.426205   -0.109936
C       0.284839    0.907633    0.081527
C       1.666463    1.199068    0.234962
C       2.534775    0.172306    0.037286
C       2.120581   -1.108351   -0.123851
C       0.699084   -1.422455   -0.154854
O      -0.635925    1.820680   -0.025334
H       1.888708    2.224084    0.428334
H       3.573258    0.342748   -0.026660
H       2.953159   -1.923457   -0.451049
H       0.293864   -2.520741   -0.660099
H      -1.508187    1.476293   -0.316039
15
Geometry 190 of 200
N      -1.600386   -0.698970   -0.116771
O      -2.298365    0.187075   -0.844281
O      -1.805712   -0.780989    1.131283
C      -0.204857   -0.454261   -0.205739
C       0.252341    0.890742    0.070626
C       1.581324    1.231859    0.214448
C       2.573774    0.203646    0.088096
C       2.066413   -1.134740   -0.120092
C       0.744464   -1.528289   -0.219306
O      -0.653971    1.870127    0.012767
H       1.747316    2.293737    0.207292
H       3.724541    0.203958    0.078445
H       2.827698   -1.976561   -0.172406
H       0.458927   -2.585447   -0.409841
H      -1.464198    1.324524   -0.352126
15
Geometry 191 of 200
N      -1.702399   -0.340308    0.045126
O      -2.145782   -1.443564   -0.043827
O      -2.302804    0.708489   -0.090011
C      -0.228330   -0.268805    0.042830
C       0.398078    0.930767    0.061377
C       1.825877    1.000720   -0.090298
C       2.540585   -0.203636   -0.053236
C       1.933864   -1.440039   -0.018847
C       0.576722   -1.427649    0.125283
O      -0.228379    2.195805    0.073196
H       2.146717    1.990917   -0.048062
H       3.737655   -0.124728   -0.139428
H       2.361045   -2.380448   -0.056999
H      -0.113286   -2.269421    0.000620
H      -1.242059    2.039392   -0.118236
15
Geometry 192 of 200
N      -1.661280   -0.717161   -0.053723
O      -2.299945    0.139961   -0.810563
O      -1.820037   -0.853446    1.146049
C      -0.277326   -0.444131   -0.188629
C       0.279689    0.940810   -0.076462
C       1.656634    1.146780    0.130836
C       2.548987    0.194689    0.223223
C       2.090870   -1.147775   -0.173523
C       0.750860   -1.433112   -0.291586
O      -0.613691    1.954297   -0.000468
H       1.774422    2.279122    0.387532
H       3.629342    0.555978    0.659953
H       2.848576   -2.031466   -0.104195
H       0.396392   -2.557834   -0.392371
H      -1.440544    1.412564   -0.297613
15
Geometry 193 of 200
N      -1.574561   -0.662134   -0.060512
O      -2.181100    0.208006   -0.764354
O      -1.924359   -0.863369    1.103129
C      -0.179892   -0.443673   -0.095441
C       0.250756    0.934194    0.068060
C       1.587446    1.162521    0.147690
C       2.502311    0.220126    0.146835
C       2.094952   -1.129992   -0.163612
C       0.736015   -1.484501   -0.305733
O      -0.644436    1.852859   -0.085587
H       1.737275    2.303531    0.140530
H       3.463546    0.150574    0.166449
H       2.881612   -1.873328   -0.251245
H       0.390958   -2.541488   -0.298248
H      -1.532450    1.319523   -0.158859
15
Geometry 194 of 200
N      -2.190059   -0.290961   -0.013473
O      -2.655704   -1.396847    0.099492
O      -2.792479    0.683086   -0.064819
C      -0.616735   -0.178144   -0.031309
C      -0.085990    1.064007    0.051040
C       1.452067    1.098285    0.052679
C       2.026323   -0.175365    0.011587
C       1.297266   -1.324269   -0.008832
C      -0.066313   -1.418923    0.041315
O      -0.700303    2.272708    0.058770
H       1.803781    2.206614    0.172497
H       3.132903   -0.084524    0.083496
H       1.767280   -2.283173   -0.233040
H      -0.641030   -2.302535    0.025198
H      -1.668295    2.109927   -0.241702
15
Geometry 195 of 200
N      -1.651657   -0.362029    0.065789
O      -2.125302   -1.466967    0.031351
O      -2.295336    0.671834   -0.128860
C      -0.221321   -0.219624    0.080267
C       0.434153    1.074841   -0.029484
C       1.784984    0.989673   -0.051017
C       2.561803   -0.251470    0.009029
C       1.854494   -1.436372   -0.010527
C       0.516205   -1.471441   -0.028433
O      -0.230653    2.201446    0.066969
H       2.300757    1.870684    0.005666
H       3.577756   -0.179381    0.036459
H       2.555598   -2.101986   -0.108267
H      -0.049833   -2.353217   -0.104247
H      -1.137639    1.941673    0.077575
15
Geometry 196 of 200
N      -1.609249   -0.689034   -0.089297
O      -2.268745    0.078807   -0.920482
O      -1.828857   -0.760748    1.208525
C      -0.187407   -0.431905   -0.100879
C       0.205681    0.909689    0.070184
C       1.643175    1.265819    0.188558
C       2.506718    0.207606    0.193174
C       2.066116   -1.179479   -0.215347
C       0.705179   -1.442557   -0.309290
O      -0.602504    1.848707   -0.014802
H       2.083558    2.209371    0.551879
H       3.621830    0.389026    0.269428
H       2.795082   -1.982395   -0.579798
H       0.156203   -2.503453   -0.466181
H      -1.477373    1.359481   -0.366612
15
Geometry 197 of 200
N      -1.658146   -0.369331   -0.053019
O      -2.234877   -1.413734    0.198824
O      -2.314339    0.686593   -0.207517
C      -0.246606   -0.323619    0.011445
C       0.432229    0.955716    0.056344
C       1.845248    0.976533    0.039119
C       2.602210   -0.157115   -0.000212
C       1.982740   -1.334998   -0.173084
C       0.464246   -1.464603    0.028531
O      -0.205231    2.178191    0.068766
H       2.199959    1.972281    0.423789
H       3.522806   -0.036887    0.038504
H       2.406748   -2.424484   -0.200798
H       0.083932   -2.475946    0.108428
H      -1.156670    2.051258   -0.177331
15
Geometry 198 of 200
N      -1.608042   -0.659492   -0.098974
O      -2.245908    0.080006   -0.936335
O      -1.921943   -0.694233    1.145049
C      -0.205313   -0.500700   -0.133667
C       0.316142    0.841511    0.094456
C       1.663272    1.256950    0.122401
C       2.489837    0.274743    0.060634
C       2.102097   -1.138372   -0.161842
C       0.695785   -1.513722   -0.236054
O      -0.620488    1.810216    0.136428
H       1.809434    2.366022    0.279540
H       3.412815    0.510168    0.062240
H       2.968388   -1.948362   -0.116336
H       0.299683   -2.562644   -0.601494
H      -1.356196    1.394840   -0.214726
15
Geometry 199 of 200
N      -1.630390   -0.660433   -0.089269
O      -2.235630    0.125142   -0.833219
O      -1.873647   -0.730073    1.183260
C      -0.183353   -0.463333   -0.250823
C       0.206980    0.835458    0.084651
C       1.593227    1.207249    0.276063
C       2.548617    0.190412    0.074666
C       2.144671   -1.153589   -0.162054
C       0.741705   -1.408600   -0.305207
O      -0.653391    1.842155   -0.016987
H       1.783555    2.102307    0.253970
H       3.605942    0.263224    0.232658
H       2.861857   -2.024200   -0.107520
H       0.552086   -2.377106   -0.218124
H      -1.613486    1.481442   -0.317597
15
Geometry 200 of 200
N      -2.154744   -0.303151    0.206782
O      -2.667202   -1.066341   -0.596943
O      -2.822358    0.739150    0.644010
C      -0.721224   -0.178257    0.248313
C      -0.128394    1.077258    0.077489
C       1.281073    1.086983    0.007991
C       2.008417   -0.139982    0.057769
C       1.407789   -1.376945    0.027639
C       0.058673   -1.366358    0.109725
O      -0.795293    2.114410   -0.436583
H       1.811429    2.150930    0.040943
H       3.156999   -0.062522    0.122551
H       1.984902   -2.305532   -0.180887
H      -0.584687   -2.243211   -0.218053
H      -1.774766    1.854304   -0.112481
